     Program PWSCF v.6.5Max starts on 24May2022 at 20:44:53

     R & G space division:  proc/nbgrp/npool/nimage =      16
     Waiting for input...
     Reading input from standard input
Warning: card &IONS ignored
Warning: card  / ignored
Warning: card &CELL ignored
Warning: card CELL_DYNAMICS='BFGS' ignored
Warning: card CELL_FACTOR=2.5 ignored
Warning: card CELL_DOFREE='2DXY' ignored
Warning: card / ignored

     Current dimensions of program PWSCF are:
     Max number of different atomic species (ntypx) = 10
     Max number of k-points (npk) =  40000
     Max angular momentum in pseudopotentials (lmaxx) =  3
               file Mo.pw-mt_fhi.UPF: wavefunction(s)  4f renormalized
               file S.pw-mt_fhi.UPF: wavefunction(s)  4f renormalized

     Parameters for Dispersion (Grimme-D2) Correction:
       atom      VdW radius       C_6

        Mo         3.097        855.833
        S          3.180        193.230

     Subspace diagonalization in iterative solution of the eigenvalue problem:
     a serial algorithm will be used

     Message from routine setup:
     no reason to have ecutrho>4*ecutwfc

     bravais-lattice index     =            0
     lattice parameter (alat)  =      17.5735  a.u.
     unit-cell volume          =    8944.6375 (a.u.)^3
     number of atoms/cell      =           26
     number of atomic types    =            2
     number of electrons       =       156.00
     number of Kohn-Sham states=          100
     kinetic-energy cutoff     =      60.0000  Ry
     charge density cutoff     =     600.0000  Ry
     convergence threshold     =      1.0E-08
     mixing beta               =       0.7000
     number of iterations used =            8  plain     mixing
     Exchange-correlation= SLA-PW
                           (   1   4   0   0   0   0   0)

     celldm(1)=  17.573519  celldm(2)=   0.000000  celldm(3)=   0.000000
     celldm(4)=   0.000000  celldm(5)=   0.000000  celldm(6)=   0.000000

     crystal axes: (cart. coord. in units of alat)
               a(1) = (   0.988692  -0.000007   0.000000 )
               a(2) = (  -0.494352   0.856229   0.000000 )
               a(3) = (   0.000000   0.000000   1.946870 )

     reciprocal axes: (cart. coord. in units 2 pi/alat)
               b(1) = (  1.011441  0.583965 -0.000000 )
               b(2) = (  0.000008  1.167916 -0.000000 )
               b(3) = ( -0.000000 -0.000000  0.513645 )

     PseudoPot. # 1 for Mo read from file:
     ./Mo.pw-mt_fhi.UPF
     MD5 check sum: 39557091c5c29ab518dcc42d2770f0a9
     Pseudo is Norm-conserving, Zval =  6.0
     Generated using FHI98PP, converted with fhi2upf.x v.5.0.1
     Using radial grid of  541 points,  3 beta functions with:
                l(1) =   0
                l(2) =   2
                l(3) =   3

     PseudoPot. # 2 for S  read from file:
     ./S.pw-mt_fhi.UPF
     MD5 check sum: 498597b413bac406373b42162ed9f1a5
     Pseudo is Norm-conserving, Zval =  6.0
     Generated using FHI98PP, converted with fhi2upf.x v.5.0.1
     Using radial grid of  501 points,  3 beta functions with:
                l(1) =   0
                l(2) =   1
                l(3) =   3

     atomic species   valence    mass     pseudopotential
        Mo             6.00    95.95000     Mo( 1.00)
        S              6.00    32.06500     S ( 1.00)

     No symmetry found

   Cartesian axes

     site n.     atom                  positions (alat units)
         1           Mo  tau(   1) = (   0.1647064   0.0967583   1.1993646  )
         2           S   tau(   2) = (   0.0042196   0.1954886   1.3667794  )
         3           S   tau(   3) = (  -0.0022711   0.1911741   1.0332113  )
         4           Mo  tau(   4) = (   0.0049277   0.3825437   1.1964482  )
         5           S   tau(   5) = (  -0.1574222   0.4754597   1.3667727  )
         6           S   tau(   6) = (  -0.1643937   0.4719940   1.0331982  )
         7           Mo  tau(   7) = (  -0.1626858   0.6638053   1.1993550  )
         8           S   tau(   8) = (  -0.3296430   0.7601981   1.3650009  )
         9           S   tau(   9) = (  -0.3296502   0.7602023   1.0338118  )
        10           Mo  tau(  10) = (   0.4943245   0.0942675   1.2033826  )
        11           S   tau(  11) = (   0.3251986   0.1954752   1.3667824  )
        12           S   tau(  12) = (   0.3316793   0.1911732   1.0332058  )
        13           Mo  tau(  13) = (   0.3244913   0.3825334   1.1964554  )
        14           S   tau(  14) = (   0.1647169   0.4747793   1.0279647  )
        15           Mo  tau(  15) = (   0.1647006   0.6592786   1.1964482  )
        16           S   tau(  16) = (   0.0030581   0.7534197   1.3667726  )
        17           S   tau(  17) = (   0.0025738   0.7611900   1.0331982  )
        18           Mo  tau(  18) = (   0.8237765   0.0942710   1.2033927  )
        19           S   tau(  19) = (   0.6590447   0.1893790   1.3713343  )
        20           S   tau(  20) = (   0.6590542   0.1893735   1.0377749  )
        21           Mo  tau(  21) = (   0.6590535   0.3795866   1.2033827  )
        22           S   tau(  22) = (   0.4868421   0.4754501   1.3667824  )
        23           S   tau(  23) = (   0.4938082   0.4719886   1.0332059  )
        24           Mo  tau(  24) = (   0.4920874   0.6637989   1.1993646  )
        25           S   tau(  25) = (   0.3263410   0.7534193   1.3667794  )
        26           S   tau(  26) = (   0.3268321   0.7611977   1.0332113  )

     number of k points=    52
                       cart. coord. in units 2pi/alat
        k(    1) = (   0.0000000   0.0000000   0.0000000), wk =   0.0200000
        k(    2) = (   0.0000008   0.1167916   0.0000000), wk =   0.0400000
        k(    3) = (   0.0000016   0.2335832   0.0000000), wk =   0.0400000
        k(    4) = (   0.0000025   0.3503748   0.0000000), wk =   0.0400000
        k(    5) = (   0.0000033   0.4671665   0.0000000), wk =   0.0400000
        k(    6) = (  -0.0000041  -0.5839581   0.0000000), wk =   0.0200000
        k(    7) = (   0.1011449   0.1751881   0.0000000), wk =   0.0400000
        k(    8) = (   0.1011457   0.2919798   0.0000000), wk =   0.0400000
        k(    9) = (   0.1011466   0.4087714   0.0000000), wk =   0.0400000
        k(   10) = (   0.1011474   0.5255630   0.0000000), wk =   0.0400000
        k(   11) = (   0.1011400  -0.5255616   0.0000000), wk =   0.0400000
        k(   12) = (   0.1011408  -0.4087699   0.0000000), wk =   0.0400000
        k(   13) = (   0.1011416  -0.2919783   0.0000000), wk =   0.0400000
        k(   14) = (   0.1011424  -0.1751867   0.0000000), wk =   0.0400000
        k(   15) = (   0.1011433  -0.0583951   0.0000000), wk =   0.0400000
        k(   16) = (   0.2022898   0.3503763   0.0000000), wk =   0.0400000
        k(   17) = (   0.2022907   0.4671679   0.0000000), wk =   0.0400000
        k(   18) = (   0.2022915   0.5839595   0.0000000), wk =   0.0400000
        k(   19) = (   0.2022841  -0.4671650   0.0000000), wk =   0.0400000
        k(   20) = (   0.2022849  -0.3503734   0.0000000), wk =   0.0400000
        k(   21) = (   0.2022857  -0.2335818   0.0000000), wk =   0.0400000
        k(   22) = (   0.2022865  -0.1167902   0.0000000), wk =   0.0400000
        k(   23) = (   0.3034348   0.5255644   0.0000000), wk =   0.0400000
        k(   24) = (   0.3034356   0.6423560   0.0000000), wk =   0.0400000
        k(   25) = (   0.3034282  -0.4087685   0.0000000), wk =   0.0400000
        k(   26) = (   0.3034290  -0.2919769   0.0000000), wk =   0.0400000
        k(   27) = (   0.3034298  -0.1751853   0.0000000), wk =   0.0400000
        k(   28) = (   0.4045797   0.7007525   0.0000000), wk =   0.0400000
        k(   29) = (   0.4045723  -0.3503720   0.0000000), wk =   0.0400000
        k(   30) = (   0.4045731  -0.2335804   0.0000000), wk =   0.0400000
        k(   31) = (  -0.5057246  -0.8759407   0.0000000), wk =   0.0200000
        k(   32) = (  -0.1011441  -0.0583965   0.0000000), wk =   0.0400000
        k(   33) = (  -0.2022882  -0.1167930   0.0000000), wk =   0.0400000
        k(   34) = (  -0.3034323  -0.1751896   0.0000000), wk =   0.0400000
        k(   35) = (  -0.4045764  -0.2335861   0.0000000), wk =   0.0400000
        k(   36) = (   0.5057205   0.2919826   0.0000000), wk =   0.0200000
        k(   37) = (  -0.2022890  -0.2335847   0.0000000), wk =   0.0400000
        k(   38) = (  -0.3034331  -0.2919812   0.0000000), wk =   0.0400000
        k(   39) = (  -0.4045772  -0.3503777   0.0000000), wk =   0.0400000
        k(   40) = (   0.5057197   0.1751910   0.0000000), wk =   0.0400000
        k(   41) = (   0.4045756   0.1167945   0.0000000), wk =   0.0400000
        k(   42) = (   0.3034315   0.0583979   0.0000000), wk =   0.0400000
        k(   43) = (   0.2022874   0.0000014   0.0000000), wk =   0.0400000
        k(   44) = (  -0.3034339  -0.4087728   0.0000000), wk =   0.0400000
        k(   45) = (  -0.4045780  -0.4671693   0.0000000), wk =   0.0400000
        k(   46) = (   0.5057188   0.0583994   0.0000000), wk =   0.0400000
        k(   47) = (   0.4045747   0.0000029   0.0000000), wk =   0.0400000
        k(   48) = (   0.3034306  -0.0583937   0.0000000), wk =   0.0400000
        k(   49) = (  -0.4045789  -0.5839609   0.0000000), wk =   0.0400000
        k(   50) = (   0.5057180  -0.0583922   0.0000000), wk =   0.0400000
        k(   51) = (   0.4045739  -0.1167888   0.0000000), wk =   0.0400000
        k(   52) = (   0.5057172  -0.1751839   0.0000000), wk =   0.0400000

     Initial potential from superposition of free atoms

     starting charge  155.98484, renormalised to  156.00000

     negative rho (up, down):  1.431E-02 0.000E+00
     Starting wfcs are  416 randomized atomic wfcs

     Self-consistent Calculation

     iteration #  1     ecut=    60.00 Ry     beta= 0.70
     Davidson diagonalization with overlap
     ethr =  1.00E-02,  avg # of iterations =  2.0

     negative rho (up, down):  3.844E-03 0.000E+00

     total energy              =    -489.32134143 Ry
     Harris-Foulkes estimate   =    -499.16639544 Ry
     estimated scf accuracy    <      11.91430971 Ry

[...]

     total energy              =    -497.28224654 Ry
     Harris-Foulkes estimate   =    -497.28224654 Ry
     estimated scf accuracy    <       0.00000002 Ry

     iteration # 22     ecut=    60.00 Ry     beta= 0.70
     Davidson diagonalization with overlap
     ethr =  9.98E-12,  avg # of iterations =  2.0

     End of self-consistent calculation

          k = 0.0000 0.0000 0.0000 ( 70261 PWs)   bands (ev):

   -15.6195 -14.4355 -14.2844 -14.2843 -14.2258 -14.2096 -14.2095 -13.9440
   -13.6688 -13.6686 -13.5907 -13.5678 -13.5677 -13.3315 -13.2567 -13.0895
   -12.9897  -7.0699  -6.8736  -6.8736  -6.8057  -6.7448  -6.7448  -6.6267
    -6.5580  -6.5579  -5.9941  -5.9939  -5.8091  -5.6944  -5.6944  -5.6667
    -5.6505  -5.6504  -5.4071  -5.4069  -5.3312  -5.2421  -5.2421  -5.0549
    -4.9528  -4.9527  -4.8566  -4.4433  -4.3608  -4.3607  -4.0196  -3.9474
    -3.9473  -3.9431  -3.7655  -3.7653  -3.4787  -3.3871  -3.3096  -3.3095
    -3.1577  -2.9799  -2.9624  -2.9623  -2.8369  -2.8369  -2.4862  -2.4860
    -2.4386  -2.4072  -2.4071  -2.3811  -2.3041  -2.2971  -2.2970  -2.2677
    -2.1493  -2.1492  -1.5371  -1.1892  -1.1892  -1.0925   0.1786   0.1788
     0.9788   0.9788   1.3409   1.3734   1.3734   1.3822   1.4224   1.4225
     1.5603   1.5603   1.5950   1.6496   1.8480   1.8481   2.0135   2.0136
     2.2221   2.2221   2.4188   2.5937

[...]

          k =-0.0000-0.5840 0.0000 ( 70188 PWs)   bands (ev):

[...]

          k =-0.4046-0.5840 0.0000 ( 70124 PWs)   bands (ev):

[...]

          k = 0.5057-0.1752 0.0000 ( 70167 PWs)   bands (ev):

   -15.2864 -15.1006 -14.6730 -14.3001 -14.2153 -14.0940 -13.8651 -13.7376
   -13.6427 -13.5880 -13.5638 -13.5192 -13.3797 -13.2960 -13.2234 -13.2131
   -13.1726  -7.3258  -6.9938  -6.8979  -6.7654  -6.7215  -6.6996  -6.5777
    -6.5570  -6.4691  -6.4137  -6.3422  -6.2710  -6.0200  -5.9402  -5.4270
    -5.3307  -5.2901  -5.1802  -5.0987  -5.0710  -4.9826  -4.8602  -4.7321
    -4.6806  -4.6237  -4.5915  -4.5321  -4.4654  -4.4320  -4.3544  -4.2492
    -4.1234  -4.0254  -3.9664  -3.7939  -3.6085  -3.5016  -3.3563  -3.2799
    -3.2549  -3.1639  -3.1296  -3.0989  -3.0705  -2.9389  -2.9071  -2.7120
    -2.6359  -2.4760  -2.2541  -2.2053  -2.0367  -1.9897  -1.8747  -1.7945
    -1.7305  -1.6915  -1.6268  -1.5797  -1.4598  -1.2744   0.2168   0.3267
     0.9793   1.0684   1.2494   1.3089   1.4321   1.4801   1.5110   1.6101
     1.6868   1.7606   1.7963   1.8700   1.8770   1.9437   2.0310   2.1392
     2.1665   2.2305   2.2819   2.3549

     highest occupied, lowest unoccupied level (ev):    -1.0925    0.1686

!    total energy              =    -497.28224654 Ry
     Harris-Foulkes estimate   =    -497.28224654 Ry
     estimated scf accuracy    <          7.2E-09 Ry

     The total energy is the sum of the following terms:

     one-electron contribution =   -3521.39101059 Ry
     hartree contribution      =    1799.47845626 Ry
     xc contribution           =    -114.53729605 Ry
     ewald contribution        =    1339.53752648 Ry
     Dispersion Correction     =      -0.36992264 Ry

     convergence has been achieved in  22 iterations

     Forces acting on atoms (cartesian axes, Ry/au):

     atom    1 type  1   force =     0.00000114   -0.00008517   -0.00040077
     atom    2 type  2   force =     0.00033804    0.00068709    0.00010567
     atom    3 type  2   force =    -0.00012637    0.00031636   -0.00033680
     atom    4 type  1   force =    -0.00077494   -0.00046995    0.00063829
     atom    5 type  2   force =     0.00075285   -0.00004978    0.00010711
     atom    6 type  2   force =     0.00018803   -0.00027516   -0.00031485
     atom    7 type  1   force =    -0.00006270    0.00003584   -0.00039071
     atom    8 type  2   force =    -0.00000007    0.00000021    0.00016850
     atom    9 type  2   force =     0.00000301   -0.00000182    0.00072942
     atom   10 type  1   force =    -0.00001223   -0.00000834    0.00016365
     atom   11 type  2   force =    -0.00034521    0.00068683    0.00009030
     atom   12 type  2   force =     0.00013385    0.00030470   -0.00032287
     atom   13 type  1   force =     0.00076520   -0.00044242    0.00063051
     atom   14 type  2   force =    -0.00001771    0.00001057   -0.00062136
     atom   15 type  1   force =     0.00001864    0.00090559    0.00063803
     atom   16 type  2   force =     0.00041936   -0.00062728    0.00010816
     atom   17 type  2   force =     0.00033230   -0.00002583   -0.00031563
     atom   18 type  1   force =     0.00002811   -0.00001516    0.00015302
     atom   19 type  2   force =     0.00001215   -0.00000696    0.00049580
     atom   20 type  2   force =    -0.00000346    0.00000233   -0.00062478
     atom   21 type  1   force =     0.00000157    0.00001446    0.00016352
     atom   22 type  2   force =    -0.00076722   -0.00004499    0.00009107
     atom   23 type  2   force =    -0.00019699   -0.00026867   -0.00032352
     atom   24 type  1   force =     0.00007649    0.00004267   -0.00040105
     atom   25 type  2   force =    -0.00042636   -0.00063633    0.00010747
     atom   26 type  2   force =    -0.00033747   -0.00004881   -0.00033821

     Total force =     0.003265     Total SCF correction =     0.000225

     Computing stress (Cartesian axis) and pressure

          total   stress  (Ry/bohr**3)                   (kbar)     P=        0.01
   0.00000156   0.00000002   0.00000000            0.23        0.00        0.00
   0.00000002   0.00000159  -0.00000000            0.00        0.23       -0.00
   0.00000000  -0.00000000  -0.00000292            0.00       -0.00       -0.43

     Writing output data file ./out/3x3_MoS2.save/

     General routines

     Parallel routines

   This run was terminated on:   1:56:20  25May2022

   JOB DONE.