     Program PWSCF v.6.5Max starts on 27May2022 at 20:33:13

     R & G space division:  proc/nbgrp/npool/nimage =      16
     Waiting for input...
     Reading input from standard input
Warning: card &IONS ignored
Warning: card  / ignored
Warning: card &CELL ignored
Warning: card CELL_DYNAMICS='BFGS' ignored
Warning: card CELL_FACTOR=2.5 ignored
Warning: card CELL_DOFREE='2DXY' ignored
Warning: card / ignored

     Current dimensions of program PWSCF are:
     Max number of different atomic species (ntypx) = 10
     Max number of k-points (npk) =  40000
     Max angular momentum in pseudopotentials (lmaxx) =  3
               file Mo.pw-mt_fhi.UPF: wavefunction(s)  4f renormalized
               file S.pw-mt_fhi.UPF: wavefunction(s)  4f renormalized

     Parameters for Dispersion (Grimme-D2) Correction:
       atom      VdW radius       C_6

        Mo         3.097        855.833
        S          3.180        193.230

     Subspace diagonalization in iterative solution of the eigenvalue problem:
     a serial algorithm will be used

     Message from routine setup:
     no reason to have ecutrho>4*ecutwfc

     bravais-lattice index     =            0
     lattice parameter (alat)  =      17.5735  a.u.
     unit-cell volume          =    9111.0240 (a.u.)^3
     number of atoms/cell      =           26
     number of atomic types    =            2
     number of electrons       =       156.00
     number of Kohn-Sham states=          100
     kinetic-energy cutoff     =      60.0000  Ry
     charge density cutoff     =     600.0000  Ry
     convergence threshold     =      1.0E-04
     mixing beta               =       0.3000
     number of iterations used =            8  plain     mixing
     Exchange-correlation= SLA-PW
                           (   1   4   0   0   0   0   0)

     celldm(1)=  17.573519  celldm(2)=   0.000000  celldm(3)=   0.000000
     celldm(4)=   0.000000  celldm(5)=   0.000000  celldm(6)=   0.000000

     crystal axes: (cart. coord. in units of alat)
               a(1) = (   0.997901  -0.000076   0.000000 )
               a(2) = (  -0.499016   0.864143   0.000000 )
               a(3) = (   0.000000   0.000000   1.946870 )

     reciprocal axes: (cart. coord. in units 2 pi/alat)
               b(1) = (  1.002148  0.578710 -0.000000 )
               b(2) = (  0.000088  1.157267 -0.000000 )
               b(3) = ( -0.000000 -0.000000  0.513645 )

     PseudoPot. # 1 for Mo read from file:
     ./Mo.pw-mt_fhi.UPF
     MD5 check sum: 39557091c5c29ab518dcc42d2770f0a9
     Pseudo is Norm-conserving, Zval =  6.0
     Generated using FHI98PP, converted with fhi2upf.x v.5.0.1
     Using radial grid of  541 points,  3 beta functions with:
                l(1) =   0
                l(2) =   2
                l(3) =   3

     PseudoPot. # 2 for S  read from file:
     ./S.pw-mt_fhi.UPF
     MD5 check sum: 498597b413bac406373b42162ed9f1a5
     Pseudo is Norm-conserving, Zval =  6.0
     Generated using FHI98PP, converted with fhi2upf.x v.5.0.1
     Using radial grid of  501 points,  3 beta functions with:
                l(1) =   0
                l(2) =   1
                l(3) =   3

     atomic species   valence    mass     pseudopotential
        Mo             6.00    95.95000     Mo( 1.00)
        S              6.00    32.06500     S ( 1.00)

     No symmetry found

   Cartesian axes

     site n.     atom                  positions (alat units)
         1           Mo  tau(   1) = (   0.1690316   0.0956945   1.2044210  )
         2           S   tau(   2) = (   0.0004165   0.1937362   1.3658801  )
         3           S   tau(   3) = (   0.0025124   0.1902760   1.0342524  )
         4           Mo  tau(   4) = (   0.0017081   0.3852503   1.1957635  )
         5           S   tau(   5) = (  -0.1619619   0.4796776   1.3657781  )
         6           S   tau(   6) = (  -0.1709244   0.4796409   1.0342775  )
         7           Mo  tau(   7) = (  -0.1664310   0.6711912   1.1999992  )
         8           S   tau(   8) = (  -0.3346269   0.7629910   1.3656937  )
         9           S   tau(   9) = (  -0.3300162   0.7709456   1.0342863  )
        10           Mo  tau(  10) = (   0.4961693   0.0956403   1.1956339  )
        11           S   tau(  11) = (   0.3279846   0.1917834   1.3643265  )
        12           S   tau(  12) = (   0.3371729   0.1921740   1.0360409  )
        13           S   tau(  13) = (   0.1690522   0.4828090   1.3642049  )
        14           S   tau(  14) = (   0.1644521   0.4748287   1.0357841  )
        15           Mo  tau(  15) = (   0.1652549   0.6685189   1.2042180  )
        16           S   tau(  16) = (  -0.0027906   0.7708785   1.3656992  )
        17           S   tau(  17) = (   0.0016511   0.7630550   1.0342185  )
        18           Mo  tau(  18) = (   0.8315306   0.0950180   1.1999887  )
        19           S   tau(  19) = (   0.6626515   0.1901398   1.3658037  )
        20           S   tau(  20) = (   0.6647289   0.1937136   1.0341563  )
        21           Mo  tau(  21) = (   0.6633447   0.3851424   1.2043119  )
        22           S   tau(  22) = (   0.5001875   0.4745429   1.3638712  )
        23           S   tau(  23) = (   0.4960824   0.4827703   1.0355701  )
        24           Mo  tau(  24) = (   0.4997247   0.6684173   1.1955655  )
        25           S   tau(  25) = (   0.3345334   0.7653183   1.3657201  )
        26           S   tau(  26) = (   0.3304841   0.7654013   1.0341045  )

     number of k points=    52
                       cart. coord. in units 2pi/alat
        k(    1) = (   0.0000000   0.0000000   0.0000000), wk =   0.0200000
        k(    2) = (   0.0000088   0.1157267   0.0000000), wk =   0.0400000
        k(    3) = (   0.0000177   0.2314533   0.0000000), wk =   0.0400000
        k(    4) = (   0.0000265   0.3471800   0.0000000), wk =   0.0400000
        k(    5) = (   0.0000354   0.4629066   0.0000000), wk =   0.0400000
        k(    6) = (  -0.0000442  -0.5786333   0.0000000), wk =   0.0200000
        k(    7) = (   0.1002148   0.0578710   0.0000000), wk =   0.0400000
        k(    8) = (   0.1002236   0.1735976   0.0000000), wk =   0.0400000
        k(    9) = (   0.1002325   0.2893243   0.0000000), wk =   0.0400000
        k(   10) = (   0.1002413   0.4050510   0.0000000), wk =   0.0400000
        k(   11) = (   0.1002501   0.5207776   0.0000000), wk =   0.0400000
        k(   12) = (   0.1001706  -0.5207623   0.0000000), wk =   0.0400000
        k(   13) = (   0.1001794  -0.4050357   0.0000000), wk =   0.0400000
        k(   14) = (   0.1001882  -0.2893090   0.0000000), wk =   0.0400000
        k(   15) = (   0.1001971  -0.1735823   0.0000000), wk =   0.0400000
        k(   16) = (   0.1002059  -0.0578557   0.0000000), wk =   0.0400000
        k(   17) = (   0.2004295   0.1157420   0.0000000), wk =   0.0400000
        k(   18) = (   0.2004384   0.2314686   0.0000000), wk =   0.0400000
        k(   19) = (   0.2004472   0.3471953   0.0000000), wk =   0.0400000
        k(   20) = (   0.2004561   0.4629220   0.0000000), wk =   0.0400000
        k(   21) = (   0.2004649   0.5786486   0.0000000), wk =   0.0400000
        k(   22) = (   0.2003853  -0.4628913   0.0000000), wk =   0.0400000
        k(   23) = (   0.2003942  -0.3471647   0.0000000), wk =   0.0400000
        k(   24) = (   0.2004030  -0.2314380   0.0000000), wk =   0.0400000
        k(   25) = (   0.2004119  -0.1157113   0.0000000), wk =   0.0400000
        k(   26) = (   0.2004207   0.0000153   0.0000000), wk =   0.0400000
        k(   27) = (   0.3006443   0.1736130   0.0000000), wk =   0.0400000
        k(   28) = (   0.3006531   0.2893396   0.0000000), wk =   0.0400000
        k(   29) = (   0.3006620   0.4050663   0.0000000), wk =   0.0400000
        k(   30) = (   0.3006708   0.5207929   0.0000000), wk =   0.0400000
        k(   31) = (   0.3006797   0.6365196   0.0000000), wk =   0.0400000
        k(   32) = (   0.3006001  -0.4050203   0.0000000), wk =   0.0400000
        k(   33) = (   0.3006089  -0.2892937   0.0000000), wk =   0.0400000
        k(   34) = (   0.3006178  -0.1735670   0.0000000), wk =   0.0400000
        k(   35) = (   0.3006266  -0.0578404   0.0000000), wk =   0.0400000
        k(   36) = (   0.3006355   0.0578863   0.0000000), wk =   0.0400000
        k(   37) = (   0.4008591   0.2314839   0.0000000), wk =   0.0400000
        k(   38) = (   0.4008679   0.3472106   0.0000000), wk =   0.0400000
        k(   39) = (   0.4008768   0.4629373   0.0000000), wk =   0.0400000
        k(   40) = (   0.4008856   0.5786639   0.0000000), wk =   0.0400000
        k(   41) = (   0.4008944   0.6943906   0.0000000), wk =   0.0400000
        k(   42) = (   0.4008149  -0.3471494   0.0000000), wk =   0.0400000
        k(   43) = (   0.4008237  -0.2314227   0.0000000), wk =   0.0400000
        k(   44) = (   0.4008326  -0.1156960   0.0000000), wk =   0.0400000
        k(   45) = (   0.4008414   0.0000306   0.0000000), wk =   0.0400000
        k(   46) = (   0.4008502   0.1157573   0.0000000), wk =   0.0400000
        k(   47) = (  -0.5010738  -0.2893549   0.0000000), wk =   0.0200000
        k(   48) = (  -0.5010650  -0.1736283   0.0000000), wk =   0.0400000
        k(   49) = (  -0.5010562  -0.0579016   0.0000000), wk =   0.0400000
        k(   50) = (  -0.5010473   0.0578250   0.0000000), wk =   0.0400000
        k(   51) = (  -0.5010385   0.1735517   0.0000000), wk =   0.0400000
        k(   52) = (  -0.5011181  -0.8679882   0.0000000), wk =   0.0200000

     Initial potential from superposition of free atoms

     starting charge  155.98644, renormalised to  156.00000

     negative rho (up, down):  1.383E-02 0.000E+00
     Starting wfcs are  416 randomized atomic wfcs

     Self-consistent Calculation

     iteration #  1     ecut=    60.00 Ry     beta= 0.30
     Davidson diagonalization with overlap
     ethr =  1.00E-02,  avg # of iterations =  2.0

     negative rho (up, down):  9.415E-03 0.000E+00

     total energy              =    -496.68212867 Ry
     Harris-Foulkes estimate   =    -502.92519312 Ry
     estimated scf accuracy    <      13.47399418 Ry

[...]

     negative rho (up, down):  1.489E-04 0.000E+00

     total energy              =    -501.08964454 Ry
     Harris-Foulkes estimate   =    -501.08967610 Ry
     estimated scf accuracy    <       0.00018318 Ry

     iteration # 12     ecut=    60.00 Ry     beta= 0.30
     Davidson diagonalization with overlap
     ethr =  1.17E-07,  avg # of iterations =  2.3

     End of self-consistent calculation

          k = 0.0000 0.0000 0.0000 ( 71573 PWs)   bands (ev):

   -15.7558 -14.5562 -14.5278 -14.5270 -14.5218 -14.2173 -14.2172 -13.8674
   -13.8669 -13.8581 -13.7748 -13.5965 -13.5963 -13.3474 -13.1735 -13.1724
   -12.7713 -12.7710  -7.2159  -6.9600  -6.9594  -6.9269  -6.9265  -6.9222
    -6.7160  -6.5362  -6.5359  -6.2436  -5.9240  -5.9040  -5.8398  -5.8388
    -5.7283  -5.7278  -5.6803  -5.6120  -5.6115  -5.4269  -5.4269  -5.3151
    -5.3122  -5.1437  -4.7601  -4.7599  -4.7260  -4.6033  -4.3639  -4.3095
    -4.3086  -4.3046  -4.1894  -3.8005  -3.7990  -3.7197  -3.7188  -3.3752
    -3.3736  -3.3606  -3.1452  -3.0766  -3.0763  -2.9059  -2.9055  -2.8305
    -2.6767  -2.6765  -2.6154  -2.5149  -2.5141  -2.4835  -2.4027  -2.4026
    -2.3838  -1.8750  -1.8520  -1.8508  -0.8589  -0.8587  -0.7530  -0.4356
    -0.4348   0.6466   0.7097   1.0189   1.0342   1.0344   1.1071   1.1241
     1.1248   1.1940   1.2841   1.2853   1.7619   1.7646   1.9074   1.9079
     2.0444   2.0453   2.2643   2.2898

[...]

          k =-0.0000-0.5786 0.0000 ( 71476 PWs)   bands (ev):

[...]

          k = 0.4009 0.1158 0.0000 ( 71475 PWs)   bands (ev):

[...]

          k =-0.5011-0.8680 0.0000 ( 71480 PWs)   bands (ev):

   -15.4566 -15.2626 -14.6805 -14.5000 -14.3835 -14.2624 -13.9245 -13.9192
   -13.8775 -13.8003 -13.5664 -13.5097 -13.5091 -13.3084 -13.2543 -13.2261
   -12.8227 -12.7775  -7.4512  -7.0392  -7.0024  -6.9003  -6.8803  -6.7642
    -6.7237  -6.6331  -6.6053  -6.4879  -6.3972  -6.3267  -6.3142  -6.1773
    -5.5147  -5.4647  -5.3515  -5.2193  -5.1944  -5.1473  -5.0216  -4.9703
    -4.9572  -4.8728  -4.7707  -4.7582  -4.6666  -4.6290  -4.6067  -4.6020
    -4.4018  -4.2800  -4.1710  -3.8937  -3.8304  -3.6742  -3.6026  -3.5748
    -3.5071  -3.4584  -3.2997  -3.2220  -3.2065  -3.1572  -3.0813  -3.0497
    -2.9144  -2.5228  -2.4919  -2.3747  -2.2033  -2.1861  -2.0582  -2.0449
    -2.0276  -1.8683  -1.7755  -1.7505  -1.4458  -0.9333  -0.8171  -0.6305
    -0.4164   0.7368   0.7439   1.0519   1.1001   1.1163   1.1809   1.2321
     1.3365   1.3769   1.4220   1.4741   1.5490   1.5934   1.6376   1.7514
     1.7588   1.8176   1.8574   2.0062

     highest occupied, lowest unoccupied level (ev):    -0.8587   -0.8179

!    total energy              =    -501.08964833 Ry
     Harris-Foulkes estimate   =    -501.08965976 Ry
     estimated scf accuracy    <       0.00001585 Ry

     The total energy is the sum of the following terms:

     one-electron contribution =   -3423.03067568 Ry
     hartree contribution      =    1748.68474186 Ry
     xc contribution           =    -114.28560275 Ry
     ewald contribution        =    1287.88336960 Ry
     Dispersion Correction     =      -0.34148135 Ry

     convergence has been achieved in  12 iterations

     Forces acting on atoms (cartesian axes, Ry/au):

     atom    1 type  1   force =     0.00074816    0.00001474   -0.00008967
     atom    2 type  2   force =    -0.00007881    0.00017392   -0.00002781
     atom    3 type  2   force =     0.00015262   -0.00014502    0.00006016
     atom    4 type  1   force =     0.00029509    0.00072847   -0.00030383
     atom    5 type  2   force =     0.00004850   -0.00007856    0.00039009
     atom    6 type  2   force =    -0.00010237   -0.00006542   -0.00040046
     atom    7 type  1   force =    -0.00003858   -0.00002103   -0.00015429
     atom    8 type  2   force =    -0.00010202    0.00000294    0.00051810
     atom    9 type  2   force =    -0.00011050    0.00011826   -0.00038979
     atom   10 type  1   force =    -0.00070605   -0.00004011   -0.00012536
     atom   11 type  2   force =     0.00027307    0.00020742    0.00019515
     atom   12 type  2   force =    -0.00016652    0.00026849    0.00004007
     atom   13 type  2   force =    -0.00004074   -0.00039402    0.00022373
     atom   14 type  2   force =     0.00030839    0.00021429    0.00000706
     atom   15 type  1   force =    -0.00042572   -0.00063216    0.00010096
     atom   16 type  2   force =    -0.00000095    0.00010998    0.00050886
     atom   17 type  2   force =     0.00009098    0.00005418   -0.00039012
     atom   18 type  1   force =     0.00003872    0.00001852    0.00003567
     atom   19 type  2   force =    -0.00007125   -0.00016142    0.00001885
     atom   20 type  2   force =     0.00010353    0.00012596    0.00005842
     atom   21 type  1   force =    -0.00028717    0.00065191   -0.00016246
     atom   22 type  2   force =    -0.00030651   -0.00000441    0.00009030
     atom   23 type  2   force =    -0.00000340   -0.00033813   -0.00009430
     atom   24 type  1   force =     0.00037210   -0.00065584   -0.00030585
     atom   25 type  2   force =     0.00016527   -0.00008702    0.00006456
     atom   26 type  2   force =    -0.00015583   -0.00006596    0.00013197

     Total force =     0.002429     Total SCF correction =     0.009292
     SCF correction compared to forces is large: reduce conv_thr to get better values

     Computing stress (Cartesian axis) and pressure

          total   stress  (Ry/bohr**3)                   (kbar)     P=       -0.03
   0.00000200  -0.00000007  -0.00000008            0.29       -0.01       -0.01
  -0.00000007   0.00000177  -0.00000013           -0.01        0.26       -0.02
  -0.00000008  -0.00000013  -0.00000431           -0.01       -0.02       -0.63

     Writing output data file ./out/3x3_MoS2_mo.save/

     General routines

     Parallel routines

   This run was terminated on:  21:53:40  27May2022

   JOB DONE.