     Program PWSCF v.6.5Max starts on 25May2022 at 11:25:18

     R & G space division:  proc/nbgrp/npool/nimage =      16
     Waiting for input...
     Reading input from standard input

     Current dimensions of program PWSCF are:
     Max number of different atomic species (ntypx) = 10
     Max number of k-points (npk) =  40000
     Max angular momentum in pseudopotentials (lmaxx) =  3
               file Mo.pw-mt_fhi.UPF: wavefunction(s)  4f renormalized
               file S.pw-mt_fhi.UPF: wavefunction(s)  4f renormalized

     Parameters for Dispersion (Grimme-D2) Correction:
       atom      VdW radius       C_6

        Mo         3.097        855.833
        S          3.180        193.230

     Subspace diagonalization in iterative solution of the eigenvalue problem:
     a serial algorithm will be used

     Message from routine setup:
     no reason to have ecutrho>4*ecutwfc

     bravais-lattice index     =            0
     lattice parameter (alat)  =      17.5735  a.u.
     unit-cell volume          =    9116.3971 (a.u.)^3
     number of atoms/cell      =           26
     number of atomic types    =            2
     number of electrons       =       156.00
     number of Kohn-Sham states=           78
     kinetic-energy cutoff     =      60.0000  Ry
     charge density cutoff     =     600.0000  Ry
     convergence threshold     =      1.0E-04
     mixing beta               =       0.3000
     number of iterations used =            8  plain     mixing
     Exchange-correlation= SLA-PW
                           (   1   4   0   0   0   0   0)
     nstep                     =          400

     celldm(1)=  17.573519  celldm(2)=   0.000000  celldm(3)=   0.000000
     celldm(4)=   0.000000  celldm(5)=   0.000000  celldm(6)=   0.000000

     crystal axes: (cart. coord. in units of alat)
               a(1) = (   0.998112   0.000041   0.000000 )
               a(2) = (  -0.499020   0.864411   0.000000 )
               a(3) = (   0.000000   0.000000   1.946870 )

     reciprocal axes: (cart. coord. in units 2 pi/alat)
               b(1) = (  1.001868  0.578373 -0.000000 )
               b(2) = ( -0.000048  1.156829  0.000000 )
               b(3) = (  0.000000 -0.000000  0.513645 )

     PseudoPot. # 1 for Mo read from file:
     ./Mo.pw-mt_fhi.UPF
     MD5 check sum: 39557091c5c29ab518dcc42d2770f0a9
     Pseudo is Norm-conserving, Zval =  6.0
     Generated using FHI98PP, converted with fhi2upf.x v.5.0.1
     Using radial grid of  541 points,  3 beta functions with:
                l(1) =   0
                l(2) =   2
                l(3) =   3

     PseudoPot. # 2 for S  read from file:
     ./S.pw-mt_fhi.UPF
     MD5 check sum: 498597b413bac406373b42162ed9f1a5
     Pseudo is Norm-conserving, Zval =  6.0
     Generated using FHI98PP, converted with fhi2upf.x v.5.0.1
     Using radial grid of  501 points,  3 beta functions with:
                l(1) =   0
                l(2) =   1
                l(3) =   3

     atomic species   valence    mass     pseudopotential
        Mo             6.00    95.95000     Mo( 1.00)
        S              6.00    32.06500     S ( 1.00)

     No symmetry found

   Cartesian axes

     site n.     atom                  positions (alat units)
         1           Mo  tau(   1) = (   0.1664053   0.0953618   1.1999835  )
         2           S   tau(   2) = (   0.0000580   0.1914123   1.3659501  )
         3           S   tau(   3) = (   0.0000580   0.1914123   1.0340168  )
         4           Mo  tau(   4) = (  -0.0000726   0.3835341   1.1999835  )
         5           S   tau(   5) = (  -0.1665330   0.4795004   1.3660585  )
         6           S   tau(   6) = (  -0.1665330   0.4795004   1.0339084  )
         7           Mo  tau(   7) = (  -0.1666408   0.6715665   1.1999835  )
         8           S   tau(   8) = (  -0.3330759   0.7676579   1.3659438  )
         9           S   tau(   9) = (  -0.3330759   0.7676579   1.0340231  )
        10           Mo  tau(  10) = (   0.4991331   0.0951273   1.1999835  )
        11           S   tau(  11) = (   0.3328814   0.1912597   1.3660660  )
        12           S   tau(  12) = (   0.3328814   0.1912597   1.0339009  )
        13           S   tau(  13) = (   0.1662905   0.4793486   1.3661733  )
        14           S   tau(  14) = (   0.1662905   0.4793486   1.0337937  )
        15           Mo  tau(  15) = (   0.1660867   0.6713305   1.1999835  )
        16           S   tau(  16) = (  -0.0002528   0.7675063   1.3660585  )
        17           S   tau(  17) = (  -0.0002528   0.7675063   1.0339084  )
        18           Mo  tau(  18) = (   0.8319367   0.0950376   1.1999835  )
        19           S   tau(  19) = (   0.6656700   0.1910317   1.3659566  )
        20           S   tau(  20) = (   0.6656700   0.1910317   1.0340103  )
        21           Mo  tau(  21) = (   0.6654571   0.3832090   1.1999835  )
        22           S   tau(  22) = (   0.4990782   0.4791210   1.3660660  )
        23           S   tau(  23) = (   0.4990782   0.4791211   1.0339009  )
        24           Mo  tau(  24) = (   0.4988902   0.6712425   1.1999835  )
        25           S   tau(  25) = (   0.3325343   0.7672783   1.3659501  )
        26           S   tau(  26) = (   0.3325344   0.7672783   1.0340168  )

     number of k points=    52
                       cart. coord. in units 2pi/alat
        k(    1) = (   0.0000000   0.0000000   0.0000000), wk =   0.0200000
        k(    2) = (  -0.0000048   0.1156829   0.0000000), wk =   0.0400000
        k(    3) = (  -0.0000096   0.2313658   0.0000000), wk =   0.0400000
        k(    4) = (  -0.0000144   0.3470488   0.0000000), wk =   0.0400000
        k(    5) = (  -0.0000192   0.4627317   0.0000000), wk =   0.0400000
        k(    6) = (   0.0000240  -0.5784146   0.0000000), wk =   0.0200000
        k(    7) = (   0.1001819   0.1735202   0.0000000), wk =   0.0400000
        k(    8) = (   0.1001771   0.2892031   0.0000000), wk =   0.0400000
        k(    9) = (   0.1001723   0.4048861   0.0000000), wk =   0.0400000
        k(   10) = (   0.1001675   0.5205690   0.0000000), wk =   0.0400000
        k(   11) = (   0.1002108  -0.5205773   0.0000000), wk =   0.0400000
        k(   12) = (   0.1002060  -0.4048944   0.0000000), wk =   0.0400000
        k(   13) = (   0.1002012  -0.2892115   0.0000000), wk =   0.0400000
        k(   14) = (   0.1001964  -0.1735285   0.0000000), wk =   0.0400000
        k(   15) = (   0.1001916  -0.0578456   0.0000000), wk =   0.0400000
        k(   16) = (   0.2003639   0.3470404   0.0000000), wk =   0.0400000
        k(   17) = (   0.2003591   0.4627233   0.0000000), wk =   0.0400000
        k(   18) = (   0.2003543   0.5784063   0.0000000), wk =   0.0400000
        k(   19) = (   0.2003975  -0.4627400   0.0000000), wk =   0.0400000
        k(   20) = (   0.2003927  -0.3470571   0.0000000), wk =   0.0400000
        k(   21) = (   0.2003879  -0.2313742   0.0000000), wk =   0.0400000
        k(   22) = (   0.2003831  -0.1156912   0.0000000), wk =   0.0400000
        k(   23) = (   0.3005458   0.5205606   0.0000000), wk =   0.0400000
        k(   24) = (   0.3005410   0.6362436   0.0000000), wk =   0.0400000
        k(   25) = (   0.3005843  -0.4049027   0.0000000), wk =   0.0400000
        k(   26) = (   0.3005795  -0.2892198   0.0000000), wk =   0.0400000
        k(   27) = (   0.3005747  -0.1735369   0.0000000), wk =   0.0400000
        k(   28) = (   0.4007278   0.6940809   0.0000000), wk =   0.0400000
        k(   29) = (   0.4007710  -0.3470654   0.0000000), wk =   0.0400000
        k(   30) = (   0.4007662  -0.2313825   0.0000000), wk =   0.0400000
        k(   31) = (  -0.5009097  -0.8676011   0.0000000), wk =   0.0200000
        k(   32) = (  -0.1001868  -0.0578373   0.0000000), wk =   0.0400000
        k(   33) = (  -0.2003735  -0.1156746   0.0000000), wk =   0.0400000
        k(   34) = (  -0.3005603  -0.1735119   0.0000000), wk =   0.0400000
        k(   35) = (  -0.4007470  -0.2313492   0.0000000), wk =   0.0400000
        k(   36) = (   0.5009338   0.2891865   0.0000000), wk =   0.0200000
        k(   37) = (  -0.2003687  -0.2313575   0.0000000), wk =   0.0400000
        k(   38) = (  -0.3005555  -0.2891948   0.0000000), wk =   0.0400000
        k(   39) = (  -0.4007422  -0.3470321   0.0000000), wk =   0.0400000
        k(   40) = (   0.5009386   0.1735036   0.0000000), wk =   0.0400000
        k(   41) = (   0.4007518   0.1156663   0.0000000), wk =   0.0400000
        k(   42) = (   0.3005651   0.0578290   0.0000000), wk =   0.0400000
        k(   43) = (   0.2003783  -0.0000083   0.0000000), wk =   0.0400000
        k(   44) = (  -0.3005506  -0.4048777   0.0000000), wk =   0.0400000
        k(   45) = (  -0.4007374  -0.4627150   0.0000000), wk =   0.0400000
        k(   46) = (   0.5009434   0.0578207   0.0000000), wk =   0.0400000
        k(   47) = (   0.4007566  -0.0000166   0.0000000), wk =   0.0400000
        k(   48) = (   0.3005699  -0.0578539   0.0000000), wk =   0.0400000
        k(   49) = (  -0.4007326  -0.5783979   0.0000000), wk =   0.0400000
        k(   50) = (   0.5009482  -0.0578623   0.0000000), wk =   0.0400000
        k(   51) = (   0.4007614  -0.1156996   0.0000000), wk =   0.0400000
        k(   52) = (   0.5009530  -0.1735452   0.0000000), wk =   0.0400000

     Initial potential from superposition of free atoms

     starting charge  155.98644, renormalised to  156.00000

     negative rho (up, down):  1.427E-02 0.000E+00
     Starting wfcs are  416 randomized atomic wfcs

     Self-consistent Calculation

     iteration #  1     ecut=    60.00 Ry     beta= 0.30
     Davidson diagonalization with overlap
     ethr =  1.00E-02,  avg # of iterations =  2.0

     negative rho (up, down):  9.702E-03 0.000E+00

     total energy              =    -496.58045537 Ry
     Harris-Foulkes estimate   =    -502.91970201 Ry
     estimated scf accuracy    <      13.66828025 Ry

[...]

     iteration #  5     ecut=    60.00 Ry     beta= 0.30
     Davidson diagonalization with overlap
     c_bands:  1 eigenvalues not converged
     c_bands:  1 eigenvalues not converged
     ethr =  9.60E-05,  avg # of iterations =  7.8

[...]

     End of self-consistent calculation

          k = 0.0000 0.0000 0.0000 ( 71589 PWs)   bands (ev):

   -15.7939 -14.6110 -14.5874 -14.5827 -14.5820 -14.2171 -14.2161 -13.9362
   -13.9350 -13.9342 -13.6836 -13.6451 -13.6430 -13.2643 -13.1155 -13.1141
   -12.7032 -12.7001  -7.2928  -6.9948  -6.9947  -6.9941  -6.9935  -6.9343
    -6.7348  -6.5174  -6.5168  -6.2343  -6.0042  -5.9586  -5.8335  -5.8305
    -5.7932  -5.7920  -5.6631  -5.6102  -5.6062  -5.4661  -5.4649  -5.3069
    -5.3051  -5.0777  -4.6979  -4.6972  -4.6800  -4.6302  -4.4298  -4.3546
    -4.3537  -4.3026  -4.1001  -3.8203  -3.8159  -3.7426  -3.7415  -3.4317
    -3.4296  -3.4140  -3.2049  -3.1149  -3.1141  -2.8821  -2.8784  -2.8457
    -2.7116  -2.7095  -2.5343  -2.5250  -2.5231  -2.5179  -2.4206  -2.3758
    -2.3756  -1.9210  -1.9033  -1.9012  -0.8672  -0.7983

          k =-0.0000 0.1157 0.0000 ( 71639 PWs)   bands (ev):

[...]

     highest occupied level (ev):    -0.7983

!    total energy              =    -501.07637619 Ry
[...]
S             4.6514964859        4.4130139232       12.6833280454
S             4.6133212975        4.4895254019        9.6302903302
Mo            4.6471929843        6.2159501390       11.1181684250
S             3.1109949879        7.1170815020       12.7005218538
S             3.0733391929        7.1178533746        9.6166601787

     Writing output data file ./out/3x3_MoS2_mo.save/
     NEW-OLD atomic charge density approx. for the potential

     negative rho (up, down):  2.172E-04 0.000E+00
     extrapolated charge  156.02731, renormalised to  156.00000

[...]

     Threshold (ethr) on eigenvalues was too large:
     Diagonalizing with lowered threshold

     Davidson diagonalization with overlap
     ethr =  8.10E-08,  avg # of iterations =  6.6

[...]

     bfgs converged in  18 scf cycles and  17 bfgs steps
     (criteria: energy <  1.0E-04 Ry, force <  1.0E-03Ry/Bohr, cell <  5.0E-01kbar)

     End of BFGS Geometry Optimization

     Final enthalpy =    -501.0896801719 Ry
Begin final coordinates
     new unit-cell volume =   9111.02398 a.u.^3 (  1350.11444 Ang^3 )
     density =      1.65397 g/cm^3

CELL_PARAMETERS (alat= 17.57351883)
   0.997900929  -0.000076234   0.000000000
  -0.499016491   0.864143248   0.000000000
   0.000000000   0.000000000   1.946870157

ATOMIC_POSITIONS (angstrom)
Mo            1.5719099142        0.8899119926       11.2005202520
S             0.0038736788        1.8016512648       12.7020095062
S             0.0233641759        1.7694731563        9.6180358753
Mo            0.0158841714        3.5826377094       11.1200098179
S            -1.5061655361        4.4607643500       12.7010614971
S            -1.5895121711        4.4604229122        9.6182692377
Mo           -1.5477260036        6.2417465596       11.1593995144
S            -3.1118648064        7.0954386563       12.7002767274
S            -3.0689874612        7.1694131691        9.6183509967
Mo            4.6141293352        0.8894071831       11.1188043940
S             3.0500945888        1.7834908714       12.6875617909
S             3.1355414488        1.7871231824        9.6346682824
S             1.5721020238        4.4898845978       12.6864315951
S             1.5293229133        4.4156724114        9.6322801191
Mo            1.5367890589        6.2168950633       11.1986322422
S            -0.0259508254        7.1687887198       12.7003276428
S             0.0153543428        7.0960342750        9.6177208240
Mo            7.7328236004        0.8836202879       11.1593018600
S             6.1623317355        1.7682056811       12.7012996279
S             6.1816497668        1.8014403618        9.6171421042
Mo            6.1687775466        3.5816337147       11.1995050893
S             4.6514964859        4.4130139232       12.6833280454
S             4.6133212975        4.4895254019        9.6302903302
Mo            4.6471929843        6.2159501390       11.1181684250
S             3.1109949879        7.1170815020       12.7005218538
S             3.0733391929        7.1178533746        9.6166601787
End final coordinates

     Writing output data file ./out/3x3_MoS2_mo.save/

     Final scf calculation at the relaxed structure.
     The G-vectors are recalculated for the final unit cell
     Results may differ from those at the preceding step.

     bravais-lattice index     =            0
     lattice parameter (alat)  =      17.5735  a.u.
     unit-cell volume          =    9111.0240 (a.u.)^3
     number of atoms/cell      =           26
     number of atomic types    =            2
     number of electrons       =       156.00
     number of Kohn-Sham states=           78
     kinetic-energy cutoff     =      60.0000  Ry
     charge density cutoff     =     600.0000  Ry
     convergence threshold     =      1.0E-06
     mixing beta               =       0.3000
     number of iterations used =            8  plain     mixing
     Exchange-correlation= SLA-PW
                           (   1   4   0   0   0   0   0)

     celldm(1)=  17.573519  celldm(2)=   0.000000  celldm(3)=   0.000000
     celldm(4)=   0.000000  celldm(5)=   0.000000  celldm(6)=   0.000000

     crystal axes: (cart. coord. in units of alat)
               a(1) = (   0.997901  -0.000076   0.000000 )
               a(2) = (  -0.499016   0.864143   0.000000 )
               a(3) = (   0.000000   0.000000   1.946870 )

     reciprocal axes: (cart. coord. in units 2 pi/alat)
               b(1) = (  1.002148  0.578710 -0.000000 )
               b(2) = (  0.000088  1.157267 -0.000000 )
               b(3) = ( -0.000000 -0.000000  0.513645 )

     PseudoPot. # 1 for Mo read from file:
     ./Mo.pw-mt_fhi.UPF
     MD5 check sum: 39557091c5c29ab518dcc42d2770f0a9
     Pseudo is Norm-conserving, Zval =  6.0
     Generated using FHI98PP, converted with fhi2upf.x v.5.0.1
     Using radial grid of  541 points,  3 beta functions with:
                l(1) =   0
                l(2) =   2
                l(3) =   3

     PseudoPot. # 2 for S  read from file:
     ./S.pw-mt_fhi.UPF
     MD5 check sum: 498597b413bac406373b42162ed9f1a5
     Pseudo is Norm-conserving, Zval =  6.0
     Generated using FHI98PP, converted with fhi2upf.x v.5.0.1
     Using radial grid of  501 points,  3 beta functions with:
                l(1) =   0
                l(2) =   1
                l(3) =   3

     atomic species   valence    mass     pseudopotential
        Mo             6.00    95.95000     Mo( 1.00)
        S              6.00    32.06500     S ( 1.00)

     No symmetry found

   Cartesian axes

     site n.     atom                  positions (alat units)
         1           Mo  tau(   1) = (   0.1690316   0.0956945   1.2044210  )
         2           S   tau(   2) = (   0.0004165   0.1937362   1.3658801  )
         3           S   tau(   3) = (   0.0025124   0.1902760   1.0342524  )
         4           Mo  tau(   4) = (   0.0017081   0.3852503   1.1957635  )
         5           S   tau(   5) = (  -0.1619619   0.4796776   1.3657781  )
         6           S   tau(   6) = (  -0.1709244   0.4796409   1.0342775  )
         7           Mo  tau(   7) = (  -0.1664310   0.6711912   1.1999992  )
         8           S   tau(   8) = (  -0.3346269   0.7629910   1.3656937  )
         9           S   tau(   9) = (  -0.3300162   0.7709456   1.0342863  )
        10           Mo  tau(  10) = (   0.4961693   0.0956403   1.1956339  )
        11           S   tau(  11) = (   0.3279846   0.1917834   1.3643265  )
        12           S   tau(  12) = (   0.3371729   0.1921740   1.0360409  )
        13           S   tau(  13) = (   0.1690522   0.4828090   1.3642049  )
        14           S   tau(  14) = (   0.1644521   0.4748287   1.0357841  )
        15           Mo  tau(  15) = (   0.1652549   0.6685189   1.2042180  )
        16           S   tau(  16) = (  -0.0027906   0.7708785   1.3656992  )
        17           S   tau(  17) = (   0.0016511   0.7630550   1.0342185  )
        18           Mo  tau(  18) = (   0.8315306   0.0950180   1.1999887  )
        19           S   tau(  19) = (   0.6626515   0.1901398   1.3658037  )
        20           S   tau(  20) = (   0.6647289   0.1937136   1.0341563  )
        21           Mo  tau(  21) = (   0.6633447   0.3851424   1.2043119  )
        22           S   tau(  22) = (   0.5001875   0.4745429   1.3638712  )
        23           S   tau(  23) = (   0.4960824   0.4827703   1.0355701  )
        24           Mo  tau(  24) = (   0.4997247   0.6684173   1.1955655  )
        25           S   tau(  25) = (   0.3345334   0.7653183   1.3657201  )
        26           S   tau(  26) = (   0.3304841   0.7654013   1.0341045  )

     number of k points=    52
                       cart. coord. in units 2pi/alat
        k(    1) = (   0.0000000   0.0000000   0.0000000), wk =   0.0200000
        k(    2) = (   0.0000088   0.1157267   0.0000000), wk =   0.0400000
        k(    3) = (   0.0000177   0.2314533   0.0000000), wk =   0.0400000
        k(    4) = (   0.0000265   0.3471800   0.0000000), wk =   0.0400000
        k(    5) = (   0.0000354   0.4629066   0.0000000), wk =   0.0400000
        k(    6) = (  -0.0000442  -0.5786333   0.0000000), wk =   0.0200000
        k(    7) = (   0.1002236   0.1735976   0.0000000), wk =   0.0400000
        k(    8) = (   0.1002325   0.2893243   0.0000000), wk =   0.0400000
        k(    9) = (   0.1002413   0.4050510   0.0000000), wk =   0.0400000
        k(   10) = (   0.1002501   0.5207776   0.0000000), wk =   0.0400000
        k(   11) = (   0.1001706  -0.5207623   0.0000000), wk =   0.0400000
        k(   12) = (   0.1001794  -0.4050357   0.0000000), wk =   0.0400000
        k(   13) = (   0.1001882  -0.2893090   0.0000000), wk =   0.0400000
        k(   14) = (   0.1001971  -0.1735823   0.0000000), wk =   0.0400000
        k(   15) = (   0.1002059  -0.0578557   0.0000000), wk =   0.0400000
        k(   16) = (   0.2004472   0.3471953   0.0000000), wk =   0.0400000
        k(   17) = (   0.2004561   0.4629220   0.0000000), wk =   0.0400000
        k(   18) = (   0.2004649   0.5786486   0.0000000), wk =   0.0400000
        k(   19) = (   0.2003853  -0.4628913   0.0000000), wk =   0.0400000
        k(   20) = (   0.2003942  -0.3471647   0.0000000), wk =   0.0400000
        k(   21) = (   0.2004030  -0.2314380   0.0000000), wk =   0.0400000
        k(   22) = (   0.2004119  -0.1157113   0.0000000), wk =   0.0400000
        k(   23) = (   0.3006708   0.5207929   0.0000000), wk =   0.0400000
        k(   24) = (   0.3006797   0.6365196   0.0000000), wk =   0.0400000
        k(   25) = (   0.3006001  -0.4050203   0.0000000), wk =   0.0400000
        k(   26) = (   0.3006089  -0.2892937   0.0000000), wk =   0.0400000
        k(   27) = (   0.3006178  -0.1735670   0.0000000), wk =   0.0400000
        k(   28) = (   0.4008944   0.6943906   0.0000000), wk =   0.0400000
        k(   29) = (   0.4008149  -0.3471494   0.0000000), wk =   0.0400000
        k(   30) = (   0.4008237  -0.2314227   0.0000000), wk =   0.0400000
        k(   31) = (  -0.5011181  -0.8679882   0.0000000), wk =   0.0200000
        k(   32) = (  -0.1002148  -0.0578710   0.0000000), wk =   0.0400000
        k(   33) = (  -0.2004295  -0.1157420   0.0000000), wk =   0.0400000
        k(   34) = (  -0.3006443  -0.1736130   0.0000000), wk =   0.0400000
        k(   35) = (  -0.4008591  -0.2314839   0.0000000), wk =   0.0400000
        k(   36) = (   0.5010738   0.2893549   0.0000000), wk =   0.0200000
        k(   37) = (  -0.2004384  -0.2314686   0.0000000), wk =   0.0400000
        k(   38) = (  -0.3006531  -0.2893396   0.0000000), wk =   0.0400000
        k(   39) = (  -0.4008679  -0.3472106   0.0000000), wk =   0.0400000
        k(   40) = (   0.5010650   0.1736283   0.0000000), wk =   0.0400000
        k(   41) = (   0.4008502   0.1157573   0.0000000), wk =   0.0400000
        k(   42) = (   0.3006355   0.0578863   0.0000000), wk =   0.0400000
        k(   43) = (   0.2004207   0.0000153   0.0000000), wk =   0.0400000
        k(   44) = (  -0.3006620  -0.4050663   0.0000000), wk =   0.0400000
        k(   45) = (  -0.4008768  -0.4629373   0.0000000), wk =   0.0400000
        k(   46) = (   0.5010562   0.0579016   0.0000000), wk =   0.0400000
        k(   47) = (   0.4008414   0.0000306   0.0000000), wk =   0.0400000
        k(   48) = (   0.3006266  -0.0578404   0.0000000), wk =   0.0400000
        k(   49) = (  -0.4008856  -0.5786639   0.0000000), wk =   0.0400000
        k(   50) = (   0.5010473  -0.0578250   0.0000000), wk =   0.0400000
        k(   51) = (   0.4008326  -0.1156960   0.0000000), wk =   0.0400000
        k(   52) = (   0.5010385  -0.1735517   0.0000000), wk =   0.0400000

     Initial potential from superposition of free atoms

     starting charge  155.98644, renormalised to  156.00000

     negative rho (up, down):  1.383E-02 0.000E+00
     Starting wfcs are  416 randomized atomic wfcs

     Self-consistent Calculation

     iteration #  1     ecut=    60.00 Ry     beta= 0.30
     Davidson diagonalization with overlap
     c_bands:  1 eigenvalues not converged
     ethr =  1.00E-06,  avg # of iterations = 16.5

[...]

     negative rho (up, down):  3.031E-08 0.000E+00

[...]

     total energy              =    -501.08965991 Ry
     Harris-Foulkes estimate   =    -501.08966225 Ry
     estimated scf accuracy    <       0.00001549 Ry

     iteration # 29     ecut=    60.00 Ry     beta= 0.30
     Davidson diagonalization with overlap
     ethr =  3.27E-09,  avg # of iterations =  5.9

     End of self-consistent calculation

[...]

          k =-0.4009-0.5787 0.0000 ( 71514 PWs)   bands (ev):

[...]

          k = 0.5010-0.1736 0.0000 ( 71503 PWs)   bands (ev):

   -15.4671 -15.2344 -14.7649 -14.4067 -14.3878 -14.2476 -13.9676 -13.9393
   -13.8912 -13.7556 -13.5642 -13.5223 -13.5097 -13.3157 -13.2556 -13.2120
   -12.8249 -12.7730  -7.4323  -7.0903  -7.0329  -6.9220  -6.8145  -6.7451
    -6.7058  -6.6803  -6.5926  -6.4600  -6.4319  -6.3212  -6.3040  -6.1270
    -5.5494  -5.4440  -5.4285  -5.3271  -5.1751  -5.0702  -5.0146  -4.9845
    -4.8828  -4.8567  -4.8011  -4.7180  -4.6877  -4.6384  -4.6132  -4.5374
    -4.3711  -4.3099  -4.1640  -4.0765  -3.7763  -3.7188  -3.5908  -3.5716
    -3.4864  -3.4002  -3.3191  -3.2679  -3.2142  -3.1320  -3.0473  -2.9754
    -2.9045  -2.5585  -2.4704  -2.3818  -2.3210  -2.1910  -2.0692  -2.0355
    -1.9682  -1.8712  -1.7829  -1.7390  -1.4328  -0.9601

     highest occupied level (ev):    -0.8582

!    total energy              =    -501.08966103 Ry
     Harris-Foulkes estimate   =    -501.08966125 Ry
     estimated scf accuracy    <       0.00000025 Ry

     The total energy is the sum of the following terms:

     one-electron contribution =   -3423.09622582 Ry
     hartree contribution      =    1748.75026059 Ry
     xc contribution           =    -114.28558386 Ry
     ewald contribution        =    1287.88336942 Ry
     Dispersion Correction     =      -0.34148135 Ry

     convergence has been achieved in  29 iterations

     Forces acting on atoms (cartesian axes, Ry/au):

     atom    1 type  1   force =     0.00062652   -0.00005699    0.00000909
     atom    2 type  2   force =    -0.00011281    0.00018886   -0.00022237
     atom    3 type  2   force =     0.00014616   -0.00018968    0.00016510
     atom    4 type  1   force =     0.00022971    0.00066721   -0.00011733
     atom    5 type  2   force =     0.00007333   -0.00003374    0.00019501
     atom    6 type  2   force =    -0.00013975   -0.00000264   -0.00028558
     atom    7 type  1   force =    -0.00004533   -0.00001888   -0.00000885
     atom    8 type  2   force =    -0.00007416   -0.00004965    0.00031123
     atom    9 type  2   force =    -0.00002988    0.00012127   -0.00026517
     atom   10 type  1   force =    -0.00061885   -0.00011087    0.00007939
     atom   11 type  2   force =     0.00023843    0.00011599    0.00006776
     atom   12 type  2   force =    -0.00011315    0.00023551    0.00003808
     atom   13 type  2   force =    -0.00008535   -0.00031548    0.00005626
     atom   14 type  2   force =     0.00026166    0.00016534   -0.00000395
     atom   15 type  1   force =    -0.00035839   -0.00047972    0.00015715
     atom   16 type  2   force =    -0.00005792    0.00010680    0.00029862
     atom   17 type  2   force =     0.00005860   -0.00002267   -0.00027245
     atom   18 type  1   force =     0.00004330    0.00000136   -0.00001202
     atom   19 type  2   force =    -0.00005995   -0.00019996   -0.00017332
     atom   20 type  2   force =     0.00014555    0.00014981    0.00015586
     atom   21 type  1   force =    -0.00020599    0.00061459   -0.00006699
     atom   22 type  2   force =    -0.00022751    0.00000555    0.00000692
     atom   23 type  2   force =    -0.00000350   -0.00027677   -0.00005369
     atom   24 type  1   force =     0.00031450   -0.00051713   -0.00015930
     atom   25 type  2   force =     0.00018739   -0.00005863   -0.00014726
     atom   26 type  2   force =    -0.00019261   -0.00003947    0.00024782

     Total force =     0.001999     Total SCF correction =     0.001157
     SCF correction compared to forces is large: reduce conv_thr to get better values

     Computing stress (Cartesian axis) and pressure

          total   stress  (Ry/bohr**3)                   (kbar)     P=       -0.05
   0.00000148  -0.00000006  -0.00000007            0.22       -0.01       -0.01
  -0.00000006   0.00000139  -0.00000011           -0.01        0.20       -0.02
  -0.00000007  -0.00000011  -0.00000388           -0.01       -0.02       -0.57

     Writing output data file ./out/3x3_MoS2_mo.save/

     General routines

     Parallel routines

   This run was terminated on:   1:22:20  27May2022

   JOB DONE.