     Program PWSCF v.6.5Max starts on 23May2022 at 19:50:30

     R & G space division:  proc/nbgrp/npool/nimage =      16
     Waiting for input...
     Reading input from standard input
Warning: card &IONS ignored
Warning: card  / ignored
Warning: card &CELL ignored
Warning: card CELL_DYNAMICS='BFGS' ignored
Warning: card CELL_FACTOR=2.5 ignored
Warning: card CELL_DOFREE='2DXY' ignored
Warning: card / ignored

     Current dimensions of program PWSCF are:
     Max number of different atomic species (ntypx) = 10
     Max number of k-points (npk) =  40000
     Max angular momentum in pseudopotentials (lmaxx) =  3
               file Mo.pw-mt_fhi.UPF: wavefunction(s)  4f renormalized
               file S.pw-mt_fhi.UPF: wavefunction(s)  4f renormalized

     Parameters for Dispersion (Grimme-D2) Correction:
       atom      VdW radius       C_6

        Mo         3.097        855.833
        S          3.180        193.230

     Subspace diagonalization in iterative solution of the eigenvalue problem:
     a serial algorithm will be used

     Message from routine setup:
     no reason to have ecutrho>4*ecutwfc

     bravais-lattice index     =            0
     lattice parameter (alat)  =       5.8578  a.u.
     unit-cell volume          =    1012.8512 (a.u.)^3
     number of atoms/cell      =            3
     number of atomic types    =            2
     number of electrons       =        18.00
     number of Kohn-Sham states=          100
     kinetic-energy cutoff     =      60.0000  Ry
     charge density cutoff     =     600.0000  Ry
     convergence threshold     =      1.0E-08
     mixing beta               =       0.7000
     number of iterations used =            8  plain     mixing
     Exchange-correlation= SLA-PW
                           (   1   4   0   0   0   0   0)

     celldm(1)=   5.857840  celldm(2)=   0.000000  celldm(3)=   0.000000
     celldm(4)=   0.000000  celldm(5)=   0.000000  celldm(6)=   0.000000

     crystal axes: (cart. coord. in units of alat)
               a(1) = (   0.998010   0.000148   0.000000 )
               a(2) = (  -0.498877   0.864376   0.000000 )
               a(3) = (   0.000000   0.000000   5.840610 )

     reciprocal axes: (cart. coord. in units 2 pi/alat)
               b(1) = (  1.001908  0.578254 -0.000000 )
               b(2) = ( -0.000171  1.156805  0.000000 )
               b(3) = (  0.000000 -0.000000  0.171215 )

     PseudoPot. # 1 for Mo read from file:
     ./Mo.pw-mt_fhi.UPF
     MD5 check sum: 39557091c5c29ab518dcc42d2770f0a9
     Pseudo is Norm-conserving, Zval =  6.0
     Generated using FHI98PP, converted with fhi2upf.x v.5.0.1
     Using radial grid of  541 points,  3 beta functions with:
                l(1) =   0
                l(2) =   2
                l(3) =   3

     PseudoPot. # 2 for S  read from file:
     ./S.pw-mt_fhi.UPF
     MD5 check sum: 498597b413bac406373b42162ed9f1a5
     Pseudo is Norm-conserving, Zval =  6.0
     Generated using FHI98PP, converted with fhi2upf.x v.5.0.1
     Using radial grid of  501 points,  3 beta functions with:
                l(1) =   0
                l(2) =   1
                l(3) =   3

     atomic species   valence    mass     pseudopotential
        Mo             6.00    95.95000     Mo( 1.00)
        S              6.00    32.06500     S ( 1.00)

     No symmetry found

   Cartesian axes

     site n.     atom                  positions (alat units)
         1           Mo  tau(   1) = (   0.4955669   0.2786269   3.5999512  )
         2           S   tau(   2) = (  -0.0034576   0.5667389   4.0985121  )
         3           S   tau(   3) = (  -0.0034576   0.5667389   3.1013879  )

     number of k points=    52
                       cart. coord. in units 2pi/alat
        k(    1) = (   0.0000000   0.0000000   0.0000000), wk =   0.0200000
        k(    2) = (  -0.0000171   0.1156805   0.0000000), wk =   0.0400000
        k(    3) = (  -0.0000343   0.2313609   0.0000000), wk =   0.0400000
        k(    4) = (  -0.0000514   0.3470414   0.0000000), wk =   0.0400000
        k(    5) = (  -0.0000686   0.4627219   0.0000000), wk =   0.0400000
        k(    6) = (   0.0000857  -0.5784023   0.0000000), wk =   0.0200000
        k(    7) = (   0.1001737   0.1735059   0.0000000), wk =   0.0400000
        k(    8) = (   0.1001565   0.2891863   0.0000000), wk =   0.0400000
        k(    9) = (   0.1001394   0.4048668   0.0000000), wk =   0.0400000
        k(   10) = (   0.1001222   0.5205473   0.0000000), wk =   0.0400000
        k(   11) = (   0.1002765  -0.5205769   0.0000000), wk =   0.0400000
        k(   12) = (   0.1002594  -0.4048965   0.0000000), wk =   0.0400000
        k(   13) = (   0.1002422  -0.2892160   0.0000000), wk =   0.0400000
        k(   14) = (   0.1002251  -0.1735355   0.0000000), wk =   0.0400000
        k(   15) = (   0.1002079  -0.0578551   0.0000000), wk =   0.0400000
        k(   16) = (   0.2003473   0.3470117   0.0000000), wk =   0.0400000
        k(   17) = (   0.2003302   0.4626922   0.0000000), wk =   0.0400000
        k(   18) = (   0.2003130   0.5783726   0.0000000), wk =   0.0400000
        k(   19) = (   0.2004673  -0.4627516   0.0000000), wk =   0.0400000
        k(   20) = (   0.2004502  -0.3470711   0.0000000), wk =   0.0400000
        k(   21) = (   0.2004330  -0.2313906   0.0000000), wk =   0.0400000
        k(   22) = (   0.2004159  -0.1157102   0.0000000), wk =   0.0400000
        k(   23) = (   0.3005210   0.5205176   0.0000000), wk =   0.0400000
        k(   24) = (   0.3005039   0.6361980   0.0000000), wk =   0.0400000
        k(   25) = (   0.3006581  -0.4049262   0.0000000), wk =   0.0400000
        k(   26) = (   0.3006410  -0.2892457   0.0000000), wk =   0.0400000
        k(   27) = (   0.3006238  -0.1735652   0.0000000), wk =   0.0400000
        k(   28) = (   0.4006947   0.6940234   0.0000000), wk =   0.0400000
        k(   29) = (   0.4008489  -0.3471008   0.0000000), wk =   0.0400000
        k(   30) = (   0.4008318  -0.2314203   0.0000000), wk =   0.0400000
        k(   31) = (  -0.5008683  -0.8675293   0.0000000), wk =   0.0200000
        k(   32) = (  -0.1001908  -0.0578254   0.0000000), wk =   0.0400000
        k(   33) = (  -0.2003816  -0.1156508   0.0000000), wk =   0.0400000
        k(   34) = (  -0.3005724  -0.1734762   0.0000000), wk =   0.0400000
        k(   35) = (  -0.4007632  -0.2313016   0.0000000), wk =   0.0400000
        k(   36) = (   0.5009540   0.2891270   0.0000000), wk =   0.0200000
        k(   37) = (  -0.2003645  -0.2313312   0.0000000), wk =   0.0400000
        k(   38) = (  -0.3005553  -0.2891566   0.0000000), wk =   0.0400000
        k(   39) = (  -0.4007461  -0.3469820   0.0000000), wk =   0.0400000
        k(   40) = (   0.5009712   0.1734465   0.0000000), wk =   0.0400000
        k(   41) = (   0.4007804   0.1156211   0.0000000), wk =   0.0400000
        k(   42) = (   0.3005895   0.0577957   0.0000000), wk =   0.0400000
        k(   43) = (   0.2003987  -0.0000297   0.0000000), wk =   0.0400000
        k(   44) = (  -0.3005381  -0.4048371   0.0000000), wk =   0.0400000
        k(   45) = (  -0.4007289  -0.4626625   0.0000000), wk =   0.0400000
        k(   46) = (   0.5009883   0.0577660   0.0000000), wk =   0.0400000
        k(   47) = (   0.4007975  -0.0000594   0.0000000), wk =   0.0400000
        k(   48) = (   0.3006067  -0.0578848   0.0000000), wk =   0.0400000
        k(   49) = (  -0.4007118  -0.5783430   0.0000000), wk =   0.0400000
        k(   50) = (   0.5010054  -0.0579144   0.0000000), wk =   0.0400000
        k(   51) = (   0.4008146  -0.1157398   0.0000000), wk =   0.0400000
        k(   52) = (   0.5010226  -0.1735949   0.0000000), wk =   0.0400000

     Initial potential from superposition of free atoms

     starting charge   17.99831, renormalised to   18.00000

     negative rho (up, down):  1.661E-03 0.000E+00
     Starting wfcs are   48 randomized atomic wfcs +   52 random wfcs

     Self-consistent Calculation

     iteration #  1     ecut=    60.00 Ry     beta= 0.70
     Davidson diagonalization with overlap
     ethr =  1.00E-02,  avg # of iterations =  5.4

     negative rho (up, down):  4.658E-04 0.000E+00

     total energy              =     -56.67786025 Ry
     Harris-Foulkes estimate   =     -57.76484375 Ry
     estimated scf accuracy    <       1.31683864 Ry

[...]

     negative rho (up, down):  2.719E-05 0.000E+00

[...]

     total energy              =     -57.55769002 Ry
     Harris-Foulkes estimate   =     -57.55769013 Ry
     estimated scf accuracy    <       0.00000002 Ry

     iteration # 11     ecut=    60.00 Ry     beta= 0.70
     Davidson diagonalization with overlap
     ethr =  1.26E-10,  avg # of iterations =  2.7

     End of self-consistent calculation

          k = 0.0000 0.0000 0.0000 (  7927 PWs)   bands (ev):

   -15.5763 -14.3486  -7.0183  -3.7418  -3.7380  -3.1284  -2.5555  -2.5520
    -1.2495   1.9958   1.9967   2.3078   2.3118   4.4559   4.6799   5.3711
     5.7483   6.9442   8.2520   8.3178   9.8707   9.8763  10.4563  11.7413
    12.1485  12.1559  12.9166  14.9426  15.6868  15.7345  15.7370  15.9543
    16.3869  16.3908  18.9909  19.2359  20.6832  21.1932  22.8574  22.8640
    24.4223  24.4302  24.6226  25.0831  25.1638  25.2178  25.2195  25.2249
    25.2260  25.7656  25.9167  25.9230  25.9377  26.3952  26.4423  26.4497
    26.9017  26.9503  27.0671  27.0747  27.1866  27.2055  27.2125  27.5645
    27.5712  28.1247  28.7909  28.9160  28.9236  29.4192  29.7640  29.7704
    29.9255  29.9482  29.9563  30.8534  30.8595  30.9862  31.7657  32.0762
    32.0836  32.3766  33.4298  33.4345  33.6615  33.6701  33.8150  33.8945
    34.3746  35.0361  35.0404  35.3376  35.5029  35.5087  36.3541  36.6684
    36.9407  36.9410  37.5734  37.5797

          k =-0.0000 0.1157 0.0000 (  7961 PWs)   bands (ev):

[...]

          k =-0.4007-0.5783 0.0000 (  7979 PWs)   bands (ev):

[...]

          k = 0.5010-0.1736 0.0000 (  7972 PWs)   bands (ev):

   -13.5257 -13.1642  -7.0706  -6.3205  -5.3022  -4.4077  -3.0120  -2.8706
    -1.6339   1.5108   2.0946   3.0145   3.5061   5.5444   7.3832   7.5964
     8.3487   9.1034   9.3501   9.6286   9.9578  10.8670  10.9159  11.4611
    12.1557  12.4391  13.3547  13.4312  14.3725  14.5958  15.1330  15.5934
    15.9061  16.7883  17.2101  17.3171  17.8363  18.0303  18.1780  18.4120
    19.5804  19.8284  20.2825  20.3853  20.6263  20.8633  21.7935  22.0824
    22.7402  23.4109  23.7395  23.8383  24.1145  24.6578  24.8851  25.1140
    25.7379  25.8145  26.2253  26.5396  26.8490  27.6677  28.1103  28.3775
    28.8435  28.9740  29.3201  30.0773  30.1644  30.9488  31.3535  31.7784
    32.2321  32.4516  32.7420  33.5311  33.9841  34.6836  35.0696  35.0801
    35.1600  35.7776  36.3636  36.5581  36.8576  37.5362  37.5852  37.9976
    38.2616  38.6067  38.7779  39.2474  39.4244  39.5697  39.6810  40.5596
    40.6395  40.9960  41.1733  41.4731

     highest occupied, lowest unoccupied level (ev):    -1.2285    0.9929

!    total energy              =     -57.55769003 Ry
     Harris-Foulkes estimate   =     -57.55769003 Ry
     estimated scf accuracy    <          4.7E-10 Ry

     The total energy is the sum of the following terms:

     one-electron contribution =    -411.21891535 Ry
     hartree contribution      =     210.09222721 Ry
     xc contribution           =     -13.23170994 Ry
     ewald contribution        =     156.84386284 Ry
     Dispersion Correction     =      -0.04315479 Ry

     convergence has been achieved in  11 iterations

     Forces acting on atoms (cartesian axes, Ry/au):

     atom    1 type  1   force =    -0.00008320    0.00004803   -0.00000720
     atom    2 type  2   force =     0.00004158   -0.00002400   -0.00073728
     atom    3 type  2   force =     0.00004162   -0.00002402    0.00074448

     Total force =     0.001054     Total SCF correction =     0.000048

     Computing stress (Cartesian axis) and pressure

          total   stress  (Ry/bohr**3)                   (kbar)     P=       -0.56
  -0.00000109  -0.00000059  -0.00000000           -0.16       -0.09       -0.00
  -0.00000059  -0.00000177   0.00000000           -0.09       -0.26        0.00
  -0.00000000   0.00000000  -0.00000849           -0.00        0.00       -1.25

     Writing output data file ./out/1x1_MoS2.save/

     General routines

     Parallel routines

   This run was terminated on:  19:57: 2  23May2022

   JOB DONE.