     Program PWSCF v.6.5Max starts on 14Apr2022 at  2:48:51

     R & G space division:  proc/nbgrp/npool/nimage =      16
     Waiting for input...
     Reading input from standard input

     Current dimensions of program PWSCF are:
     Max number of different atomic species (ntypx) = 10
     Max number of k-points (npk) =  40000
     Max angular momentum in pseudopotentials (lmaxx) =  3
               file Mo.pw-mt_fhi.UPF: wavefunction(s)  4f renormalized
               file S.pw-mt_fhi.UPF: wavefunction(s)  4f renormalized

     Parameters for Dispersion (Grimme-D2) Correction:
       atom      VdW radius       C_6

        Mo         3.097        855.833
        S          3.180        193.230

     Subspace diagonalization in iterative solution of the eigenvalue problem:
     a serial algorithm will be used

     Message from routine setup:
     no reason to have ecutrho>4*ecutwfc

     bravais-lattice index     =            0
     lattice parameter (alat)  =       5.8578  a.u.
     unit-cell volume          =    1001.5510 (a.u.)^3
     number of atoms/cell      =            3
     number of atomic types    =            2
     number of electrons       =        18.00
     number of Kohn-Sham states=           50
     kinetic-energy cutoff     =      60.0000  Ry
     charge density cutoff     =     600.0000  Ry
     convergence threshold     =      1.0E-08
     mixing beta               =       0.7000
     number of iterations used =            8  plain     mixing
     Exchange-correlation= SLA-PW
                           (   1   4   0   0   0   0   0)
     nstep                     =          400

     celldm(1)=   5.857840  celldm(2)=   0.000000  celldm(3)=   0.000000
     celldm(4)=   0.000000  celldm(5)=   0.000000  celldm(6)=   0.000000

     crystal axes: (cart. coord. in units of alat)
               a(1) = (   0.992174   0.000587   0.000000 )
               a(2) = (  -0.495579   0.859541   0.000000 )
               a(3) = (   0.000000   0.000000   5.840610 )

     reciprocal axes: (cart. coord. in units 2 pi/alat)
               b(1) = (  1.007545  0.580912 -0.000000 )
               b(2) = ( -0.000688  1.163015  0.000000 )
               b(3) = (  0.000000 -0.000000  0.171215 )

     PseudoPot. # 1 for Mo read from file:
     ./Mo.pw-mt_fhi.UPF
     MD5 check sum: 39557091c5c29ab518dcc42d2770f0a9
     Pseudo is Norm-conserving, Zval =  6.0
     Generated using FHI98PP, converted with fhi2upf.x v.5.0.1
     Using radial grid of  541 points,  3 beta functions with:
                l(1) =   0
                l(2) =   2
                l(3) =   3

     PseudoPot. # 2 for S  read from file:
     ./S.pw-mt_fhi.UPF
     MD5 check sum: 498597b413bac406373b42162ed9f1a5
     Pseudo is Norm-conserving, Zval =  6.0
     Generated using FHI98PP, converted with fhi2upf.x v.5.0.1
     Using radial grid of  501 points,  3 beta functions with:
                l(1) =   0
                l(2) =   1
                l(3) =   3

     atomic species   valence    mass     pseudopotential
        Mo             6.00    95.95000     Mo( 1.00)
        S              6.00    32.06500     S ( 1.00)

     No symmetry found

   Cartesian axes

     site n.     atom                  positions (alat units)
         1           Mo  tau(   1) = (   0.4948639   0.2761609   3.5999507  )
         2           S   tau(   2) = (  -0.0042242   0.5643096   4.0984532  )
         3           S   tau(   3) = (  -0.0042241   0.5643095   3.1014473  )

     number of k points=    52
                       cart. coord. in units 2pi/alat
        k(    1) = (   0.0000000   0.0000000   0.0000000), wk =   0.0200000
        k(    2) = (  -0.0000688   0.1163015   0.0000000), wk =   0.0400000
        k(    3) = (  -0.0001375   0.2326030   0.0000000), wk =   0.0400000
        k(    4) = (  -0.0002063   0.3489044   0.0000000), wk =   0.0400000
        k(    5) = (  -0.0002750   0.4652059   0.0000000), wk =   0.0400000
        k(    6) = (   0.0003438  -0.5815074   0.0000000), wk =   0.0200000
        k(    7) = (   0.1006857   0.1743927   0.0000000), wk =   0.0400000
        k(    8) = (   0.1006170   0.2906942   0.0000000), wk =   0.0400000
        k(    9) = (   0.1005482   0.4069956   0.0000000), wk =   0.0400000
        k(   10) = (   0.1004795   0.5232971   0.0000000), wk =   0.0400000
        k(   11) = (   0.1010982  -0.5234162   0.0000000), wk =   0.0400000
        k(   12) = (   0.1010295  -0.4071147   0.0000000), wk =   0.0400000
        k(   13) = (   0.1009607  -0.2908132   0.0000000), wk =   0.0400000
        k(   14) = (   0.1008920  -0.1745118   0.0000000), wk =   0.0400000
        k(   15) = (   0.1008232  -0.0582103   0.0000000), wk =   0.0400000
        k(   16) = (   0.2013715   0.3487854   0.0000000), wk =   0.0400000
        k(   17) = (   0.2013027   0.4650868   0.0000000), wk =   0.0400000
        k(   18) = (   0.2012340   0.5813883   0.0000000), wk =   0.0400000
        k(   19) = (   0.2018527  -0.4653250   0.0000000), wk =   0.0400000
        k(   20) = (   0.2017840  -0.3490235   0.0000000), wk =   0.0400000
        k(   21) = (   0.2017152  -0.2327220   0.0000000), wk =   0.0400000
        k(   22) = (   0.2016465  -0.1164206   0.0000000), wk =   0.0400000
        k(   23) = (   0.3020572   0.5231780   0.0000000), wk =   0.0400000
        k(   24) = (   0.3019884   0.6394795   0.0000000), wk =   0.0400000
        k(   25) = (   0.3026072  -0.4072338   0.0000000), wk =   0.0400000
        k(   26) = (   0.3025384  -0.2909323   0.0000000), wk =   0.0400000
        k(   27) = (   0.3024697  -0.1746308   0.0000000), wk =   0.0400000
        k(   28) = (   0.4027429   0.6975707   0.0000000), wk =   0.0400000
        k(   29) = (   0.4033617  -0.3491426   0.0000000), wk =   0.0400000
        k(   30) = (   0.4032929  -0.2328411   0.0000000), wk =   0.0400000
        k(   31) = (  -0.5034286  -0.8719634   0.0000000), wk =   0.0200000
        k(   32) = (  -0.1007545  -0.0580912   0.0000000), wk =   0.0400000
        k(   33) = (  -0.2015090  -0.1161824   0.0000000), wk =   0.0400000
        k(   34) = (  -0.3022634  -0.1742736   0.0000000), wk =   0.0400000
        k(   35) = (  -0.4030179  -0.2323648   0.0000000), wk =   0.0400000
        k(   36) = (   0.5037724   0.2904560   0.0000000), wk =   0.0200000
        k(   37) = (  -0.2014402  -0.2324839   0.0000000), wk =   0.0400000
        k(   38) = (  -0.3021947  -0.2905751   0.0000000), wk =   0.0400000
        k(   39) = (  -0.4029492  -0.3486663   0.0000000), wk =   0.0400000
        k(   40) = (   0.5038412   0.1741545   0.0000000), wk =   0.0400000
        k(   41) = (   0.4030867   0.1160633   0.0000000), wk =   0.0400000
        k(   42) = (   0.3023322   0.0579721   0.0000000), wk =   0.0400000
        k(   43) = (   0.2015777  -0.0001191   0.0000000), wk =   0.0400000
        k(   44) = (  -0.3021259  -0.4068766   0.0000000), wk =   0.0400000
        k(   45) = (  -0.4028804  -0.4649678   0.0000000), wk =   0.0400000
        k(   46) = (   0.5039099   0.0578530   0.0000000), wk =   0.0400000
        k(   47) = (   0.4031554  -0.0002382   0.0000000), wk =   0.0400000
        k(   48) = (   0.3024009  -0.0583294   0.0000000), wk =   0.0400000
        k(   49) = (  -0.4028117  -0.5812692   0.0000000), wk =   0.0400000
        k(   50) = (   0.5039787  -0.0584484   0.0000000), wk =   0.0400000
        k(   51) = (   0.4032242  -0.1165396   0.0000000), wk =   0.0400000
        k(   52) = (   0.5040474  -0.1747499   0.0000000), wk =   0.0400000

     Initial potential from superposition of free atoms

     starting charge   17.99831, renormalised to   18.00000

     negative rho (up, down):  1.565E-03 0.000E+00
     Starting wfcs are   48 randomized atomic wfcs +    2 random wfcs

     Self-consistent Calculation

     iteration #  1     ecut=    60.00 Ry     beta= 0.70
     Davidson diagonalization with overlap
     ethr =  1.00E-02,  avg # of iterations =  7.4

     negative rho (up, down):  4.394E-04 0.000E+00

     total energy              =     -56.65249231 Ry
     Harris-Foulkes estimate   =     -57.77091723 Ry
     estimated scf accuracy    <       1.35334186 Ry

[...]

     End of self-consistent calculation

          k = 0.0000 0.0000 0.0000 (  7855 PWs)   bands (ev):

   -15.5883 -14.3554  -7.0205  -3.6779  -3.6726  -3.1198  -2.5302  -2.4151
    -1.2356   2.0532   2.1667   2.3916   2.4600   4.5146   4.7216   5.4935
     5.8185   6.9861   8.3708   8.4001   9.9728   9.9893  10.5067  11.8199
    12.1972  12.3078  13.0585  14.9963  15.7726  15.8671  15.9215  16.0310
    16.5344  16.6038  19.1210  19.4278  20.7373  21.3032  23.1074  23.1214
    24.6488  24.7038  24.8624  25.2956  25.4048  25.4777  25.4831  25.4926
    25.5197  26.1560

          k =-0.0001 0.1163 0.0000 (  7847 PWs)   bands (ev):

[...]

     highest occupied, lowest unoccupied level (ev):    -1.1611    1.0489

!    total energy              =     -57.55728509 Ry
     Harris-Foulkes estimate   =     -57.55728508 Ry
     estimated scf accuracy    <          4.3E-10 Ry

     The total energy is the sum of the following terms:

     one-electron contribution =    -415.78057323 Ry
     hartree contribution      =     212.41091464 Ry
     xc contribution           =     -13.25724465 Ry
     ewald contribution        =     159.11275115 Ry
     Dispersion Correction     =      -0.04313299 Ry

     convergence has been achieved in  11 iterations

     Forces acting on atoms (cartesian axes, Ry/au):

     atom    1 type  1   force =    -0.00859854    0.00496387   -0.00000123
     atom    2 type  2   force =     0.00429935   -0.00248199    0.00444487
     atom    3 type  2   force =     0.00429919   -0.00248188   -0.00444364

     Total force =     0.013688     Total SCF correction =     0.000045

     Computing stress (Cartesian axis) and pressure

          total   stress  (Ry/bohr**3)                   (kbar)     P=        5.71
   0.00004574   0.00000297   0.00000000            6.73        0.44        0.00
   0.00000297   0.00004916  -0.00000000            0.44        7.23       -0.00
   0.00000000  -0.00000000   0.00002163            0.00       -0.00        3.18

     BFGS Geometry Optimization

     number of scf cycles    =   1
     number of bfgs steps    =   0

     enthalpy new            =     -57.5572850863 Ry

     new trust radius        =       0.0099284893 bohr
     new conv_thr            =       0.0000000100 Ry

     new unit-cell volume =   1003.92856 a.u.^3 (   148.76686 Ang^3 )
     density =      1.78682 g/cm^3

CELL_PARAMETERS (alat=  5.85783961)
   0.993308085   0.000660832   0.000000000
  -0.496081749   0.860560966   0.000000000
   0.000000000   0.000000000   5.840610472

ATOMIC_POSITIONS (angstrom)
Mo            1.5312589253        0.8598487271       11.1592532130
S            -0.0107019850        1.7501007966       12.7068816785
S            -0.0107017333        1.7501006259        9.6116241085

     Writing output data file ./out/1x1_MoS2.save/
     NEW-OLD atomic charge density approx. for the potential

     negative rho (up, down):  3.060E-04 0.000E+00
     extrapolated charge   18.04262, renormalised to   18.00000

[...]

     enthalpy old            =     -57.5572850863 Ry
     enthalpy new            =     -57.5575001238 Ry

     CASE: enthalpy_new < enthalpy_old

[...]

     number of scf cycles    =   5
     number of bfgs steps    =   4

     enthalpy old            =     -57.5576110377 Ry
     enthalpy new            =     -57.5576384177 Ry

     CASE: enthalpy_new < enthalpy_old

     new trust radius        =       0.0031684454 bohr
     new conv_thr            =            1.0E-10 Ry

     new unit-cell volume =   1012.85120 a.u.^3 (   150.08906 Ang^3 )
     density =      1.77108 g/cm^3

[...]

ATOMIC_POSITIONS (angstrom)
Mo            1.5361756847        0.8636974709       11.1592555962
S            -0.0107180216        1.7567970783       12.7047119821
S            -0.0107181030        1.7567971309        9.6137914217

     Writing output data file ./out/1x1_MoS2.save/
     NEW-OLD atomic charge density approx. for the potential

     negative rho (up, down):  9.466E-05 0.000E+00
     extrapolated charge   18.01515, renormalised to   18.00000

[...]

     bfgs converged in   6 scf cycles and   5 bfgs steps
     (criteria: energy <  1.0E-04 Ry, force <  1.0E-03Ry/Bohr, cell <  5.0E-01kbar)

     End of BFGS Geometry Optimization

     Final enthalpy =     -57.5576448973 Ry
Begin final coordinates
     new unit-cell volume =   1012.85120 a.u.^3 (   150.08906 Ang^3 )
     density =      1.77108 g/cm^3

CELL_PARAMETERS (alat=  5.85783961)
   0.998010261   0.000147869   0.000000000
  -0.498877076   0.864376263   0.000000000
   0.000000000   0.000000000   5.840610472

ATOMIC_POSITIONS (angstrom)
Mo            1.5361756847        0.8636974709       11.1592555962
S            -0.0107180216        1.7567970783       12.7047119821
S            -0.0107181030        1.7567971309        9.6137914217
End final coordinates

     Writing output data file ./out/1x1_MoS2.save/

     Final scf calculation at the relaxed structure.
     The G-vectors are recalculated for the final unit cell
     Results may differ from those at the preceding step.

     bravais-lattice index     =            0
     lattice parameter (alat)  =       5.8578  a.u.
     unit-cell volume          =    1012.8512 (a.u.)^3
     number of atoms/cell      =            3
     number of atomic types    =            2
     number of electrons       =        18.00
     number of Kohn-Sham states=           50
     kinetic-energy cutoff     =      60.0000  Ry
     charge density cutoff     =     600.0000  Ry
     convergence threshold     =      1.0E-10
     mixing beta               =       0.7000
     number of iterations used =            8  plain     mixing
     Exchange-correlation= SLA-PW
                           (   1   4   0   0   0   0   0)

     celldm(1)=   5.857840  celldm(2)=   0.000000  celldm(3)=   0.000000
     celldm(4)=   0.000000  celldm(5)=   0.000000  celldm(6)=   0.000000

     crystal axes: (cart. coord. in units of alat)
               a(1) = (   0.998010   0.000148   0.000000 )
               a(2) = (  -0.498877   0.864376   0.000000 )
               a(3) = (   0.000000   0.000000   5.840610 )

     reciprocal axes: (cart. coord. in units 2 pi/alat)
               b(1) = (  1.001908  0.578254 -0.000000 )
               b(2) = ( -0.000171  1.156805  0.000000 )
               b(3) = (  0.000000 -0.000000  0.171215 )

     PseudoPot. # 1 for Mo read from file:
     ./Mo.pw-mt_fhi.UPF
     MD5 check sum: 39557091c5c29ab518dcc42d2770f0a9
     Pseudo is Norm-conserving, Zval =  6.0
     Generated using FHI98PP, converted with fhi2upf.x v.5.0.1
     Using radial grid of  541 points,  3 beta functions with:
                l(1) =   0
                l(2) =   2
                l(3) =   3

     PseudoPot. # 2 for S  read from file:
     ./S.pw-mt_fhi.UPF
     MD5 check sum: 498597b413bac406373b42162ed9f1a5
     Pseudo is Norm-conserving, Zval =  6.0
     Generated using FHI98PP, converted with fhi2upf.x v.5.0.1
     Using radial grid of  501 points,  3 beta functions with:
                l(1) =   0
                l(2) =   1
                l(3) =   3

     atomic species   valence    mass     pseudopotential
        Mo             6.00    95.95000     Mo( 1.00)
        S              6.00    32.06500     S ( 1.00)

     No symmetry found

   Cartesian axes

     site n.     atom                  positions (alat units)
         1           Mo  tau(   1) = (   0.4955669   0.2786269   3.5999512  )
         2           S   tau(   2) = (  -0.0034576   0.5667389   4.0985121  )
         3           S   tau(   3) = (  -0.0034576   0.5667389   3.1013879  )

     number of k points=    52
                       cart. coord. in units 2pi/alat
        k(    1) = (   0.0000000   0.0000000   0.0000000), wk =   0.0200000
        k(    2) = (  -0.0000171   0.1156805   0.0000000), wk =   0.0400000
        k(    3) = (  -0.0000343   0.2313609   0.0000000), wk =   0.0400000
        k(    4) = (  -0.0000514   0.3470414   0.0000000), wk =   0.0400000
        k(    5) = (  -0.0000686   0.4627219   0.0000000), wk =   0.0400000
        k(    6) = (   0.0000857  -0.5784023   0.0000000), wk =   0.0200000
        k(    7) = (   0.1001737   0.1735059   0.0000000), wk =   0.0400000
        k(    8) = (   0.1001565   0.2891863   0.0000000), wk =   0.0400000
        k(    9) = (   0.1001394   0.4048668   0.0000000), wk =   0.0400000
        k(   10) = (   0.1001222   0.5205473   0.0000000), wk =   0.0400000
        k(   11) = (   0.1002765  -0.5205769   0.0000000), wk =   0.0400000
        k(   12) = (   0.1002594  -0.4048965   0.0000000), wk =   0.0400000
        k(   13) = (   0.1002422  -0.2892160   0.0000000), wk =   0.0400000
        k(   14) = (   0.1002251  -0.1735355   0.0000000), wk =   0.0400000
        k(   15) = (   0.1002079  -0.0578551   0.0000000), wk =   0.0400000
        k(   16) = (   0.2003473   0.3470117   0.0000000), wk =   0.0400000
        k(   17) = (   0.2003302   0.4626922   0.0000000), wk =   0.0400000
        k(   18) = (   0.2003130   0.5783726   0.0000000), wk =   0.0400000
        k(   19) = (   0.2004673  -0.4627516   0.0000000), wk =   0.0400000
        k(   20) = (   0.2004502  -0.3470711   0.0000000), wk =   0.0400000
        k(   21) = (   0.2004330  -0.2313906   0.0000000), wk =   0.0400000
        k(   22) = (   0.2004159  -0.1157102   0.0000000), wk =   0.0400000
        k(   23) = (   0.3005210   0.5205176   0.0000000), wk =   0.0400000
        k(   24) = (   0.3005039   0.6361980   0.0000000), wk =   0.0400000
        k(   25) = (   0.3006581  -0.4049262   0.0000000), wk =   0.0400000
        k(   26) = (   0.3006410  -0.2892457   0.0000000), wk =   0.0400000
        k(   27) = (   0.3006238  -0.1735652   0.0000000), wk =   0.0400000
        k(   28) = (   0.4006947   0.6940234   0.0000000), wk =   0.0400000
        k(   29) = (   0.4008489  -0.3471008   0.0000000), wk =   0.0400000
        k(   30) = (   0.4008318  -0.2314203   0.0000000), wk =   0.0400000
        k(   31) = (  -0.5008683  -0.8675293   0.0000000), wk =   0.0200000
        k(   32) = (  -0.1001908  -0.0578254   0.0000000), wk =   0.0400000
        k(   33) = (  -0.2003816  -0.1156508   0.0000000), wk =   0.0400000
        k(   34) = (  -0.3005724  -0.1734762   0.0000000), wk =   0.0400000
        k(   35) = (  -0.4007632  -0.2313016   0.0000000), wk =   0.0400000
        k(   36) = (   0.5009540   0.2891270   0.0000000), wk =   0.0200000
        k(   37) = (  -0.2003645  -0.2313312   0.0000000), wk =   0.0400000
        k(   38) = (  -0.3005553  -0.2891566   0.0000000), wk =   0.0400000
        k(   39) = (  -0.4007461  -0.3469820   0.0000000), wk =   0.0400000
        k(   40) = (   0.5009712   0.1734465   0.0000000), wk =   0.0400000
        k(   41) = (   0.4007804   0.1156211   0.0000000), wk =   0.0400000
        k(   42) = (   0.3005895   0.0577957   0.0000000), wk =   0.0400000
        k(   43) = (   0.2003987  -0.0000297   0.0000000), wk =   0.0400000
        k(   44) = (  -0.3005381  -0.4048371   0.0000000), wk =   0.0400000
        k(   45) = (  -0.4007289  -0.4626625   0.0000000), wk =   0.0400000
        k(   46) = (   0.5009883   0.0577660   0.0000000), wk =   0.0400000
        k(   47) = (   0.4007975  -0.0000594   0.0000000), wk =   0.0400000
        k(   48) = (   0.3006067  -0.0578848   0.0000000), wk =   0.0400000
        k(   49) = (  -0.4007118  -0.5783430   0.0000000), wk =   0.0400000
        k(   50) = (   0.5010054  -0.0579144   0.0000000), wk =   0.0400000
        k(   51) = (   0.4008146  -0.1157398   0.0000000), wk =   0.0400000
        k(   52) = (   0.5010226  -0.1735949   0.0000000), wk =   0.0400000

     Initial potential from superposition of free atoms

     starting charge   17.99831, renormalised to   18.00000

     negative rho (up, down):  1.661E-03 0.000E+00
     Starting wfcs are   48 randomized atomic wfcs +    2 random wfcs

     Self-consistent Calculation

     iteration #  1     ecut=    60.00 Ry     beta= 0.70
     Davidson diagonalization with overlap
     c_bands:  1 eigenvalues not converged
     ethr =  1.00E-06,  avg # of iterations = 14.3

[...]

     negative rho (up, down):  2.310E-05 0.000E+00

[...]

     total energy              =     -57.55769003 Ry
     Harris-Foulkes estimate   =     -57.55769003 Ry
     estimated scf accuracy    <          3.9E-10 Ry

     iteration # 12     ecut=    60.00 Ry     beta= 0.70
     Davidson diagonalization with overlap
     ethr =  2.18E-12,  avg # of iterations =  2.2

     End of self-consistent calculation

[...]

          k =-0.4007-0.5783 0.0000 (  7979 PWs)   bands (ev):

[...]

          k = 0.5010-0.1736 0.0000 (  7972 PWs)   bands (ev):

   -13.5255 -13.1640  -7.0704  -6.3203  -5.3020  -4.4074  -3.0118  -2.8704
    -1.6337   1.5110   2.0948   3.0147   3.5064   5.5447   7.3835   7.5968
     8.3493   9.1062   9.3674   9.6318   9.9744  10.8834  10.9265  11.4848
    12.1671  12.4661  13.3680  13.4471  14.3787  14.6077  15.1471  15.5961
    15.9168  16.7939  17.2225  17.3286  17.8426  18.0376  18.2154  18.4215
    19.5931  19.8431  20.2901  20.3971  20.6387  20.8749  21.7976  22.0936
    22.7525  23.4218

     highest occupied, lowest unoccupied level (ev):    -1.2283    0.9931

!    total energy              =     -57.55769003 Ry
     Harris-Foulkes estimate   =     -57.55769003 Ry
     estimated scf accuracy    <          4.0E-12 Ry

     The total energy is the sum of the following terms:

     one-electron contribution =    -411.21879409 Ry
     hartree contribution      =     210.09210160 Ry
     xc contribution           =     -13.23170561 Ry
     ewald contribution        =     156.84386287 Ry
     Dispersion Correction     =      -0.04315479 Ry

     convergence has been achieved in  12 iterations

     Forces acting on atoms (cartesian axes, Ry/au):

     atom    1 type  1   force =    -0.00008312    0.00004800   -0.00000564
     atom    2 type  2   force =     0.00004154   -0.00002399   -0.00073794
     atom    3 type  2   force =     0.00004158   -0.00002401    0.00074359

     Total force =     0.001054     Total SCF correction =     0.000001

     Computing stress (Cartesian axis) and pressure

          total   stress  (Ry/bohr**3)                   (kbar)     P=       -0.56
  -0.00000109  -0.00000059  -0.00000000           -0.16       -0.09       -0.00
  -0.00000059  -0.00000177   0.00000000           -0.09       -0.26        0.00
  -0.00000000   0.00000000  -0.00000852           -0.00        0.00       -1.25

     Writing output data file ./out/1x1_MoS2.save/

     General routines

     Parallel routines

   This run was terminated on:   3:10:30  14Apr2022

   JOB DONE.