     Program PWSCF v.6.5Max starts on 11Apr2022 at  3:32:23

     R & G space division:  proc/nbgrp/npool/nimage =      16
     Waiting for input...
     Reading input from standard input

     Current dimensions of program PWSCF are:
     Max number of different atomic species (ntypx) = 10
     Max number of k-points (npk) =  40000
     Max angular momentum in pseudopotentials (lmaxx) =  3
               file Mo.pw-mt_fhi.UPF: wavefunction(s)  4f renormalized
               file S.pw-mt_fhi.UPF: wavefunction(s)  4f renormalized

     Parameters for Dispersion (Grimme-D2) Correction:
       atom      VdW radius       C_6

        Mo         3.097        855.833
        S          3.180        193.230

     Subspace diagonalization in iterative solution of the eigenvalue problem:
     a serial algorithm will be used

     Message from routine setup:
     no reason to have ecutrho>4*ecutwfc

     bravais-lattice index     =            0
     lattice parameter (alat)  =      17.5735  a.u.
     unit-cell volume          =    9116.3971 (a.u.)^3
     number of atoms/cell      =           26
     number of atomic types    =            2
     number of electrons       =       156.00
     number of Kohn-Sham states=          100
     kinetic-energy cutoff     =      60.0000  Ry
     charge density cutoff     =     600.0000  Ry
     convergence threshold     =      1.0E-08
     mixing beta               =       0.7000
     number of iterations used =            8  plain     mixing
     Exchange-correlation= SLA-PW
                           (   1   4   0   0   0   0   0)
     nstep                     =          400

     celldm(1)=  17.573519  celldm(2)=   0.000000  celldm(3)=   0.000000
     celldm(4)=   0.000000  celldm(5)=   0.000000  celldm(6)=   0.000000

     crystal axes: (cart. coord. in units of alat)
               a(1) = (   0.998112   0.000041   0.000000 )
               a(2) = (  -0.499020   0.864411   0.000000 )
               a(3) = (   0.000000   0.000000   1.946870 )

     reciprocal axes: (cart. coord. in units 2 pi/alat)
               b(1) = (  1.001868  0.578373 -0.000000 )
               b(2) = ( -0.000048  1.156829  0.000000 )
               b(3) = (  0.000000 -0.000000  0.513645 )

     PseudoPot. # 1 for Mo read from file:
     ./Mo.pw-mt_fhi.UPF
     MD5 check sum: 39557091c5c29ab518dcc42d2770f0a9
     Pseudo is Norm-conserving, Zval =  6.0
     Generated using FHI98PP, converted with fhi2upf.x v.5.0.1
     Using radial grid of  541 points,  3 beta functions with:
                l(1) =   0
                l(2) =   2
                l(3) =   3

     PseudoPot. # 2 for S  read from file:
     ./S.pw-mt_fhi.UPF
     MD5 check sum: 498597b413bac406373b42162ed9f1a5
     Pseudo is Norm-conserving, Zval =  6.0
     Generated using FHI98PP, converted with fhi2upf.x v.5.0.1
     Using radial grid of  501 points,  3 beta functions with:
                l(1) =   0
                l(2) =   1
                l(3) =   3

     atomic species   valence    mass     pseudopotential
        Mo             6.00    95.95000     Mo( 1.00)
        S              6.00    32.06500     S ( 1.00)

     No symmetry found

   Cartesian axes

     site n.     atom                  positions (alat units)
         1           Mo  tau(   1) = (   0.1664053   0.0953618   1.1999835  )
         2           S   tau(   2) = (   0.0000580   0.1914123   1.3659501  )
         3           S   tau(   3) = (   0.0000580   0.1914123   1.0340168  )
         4           Mo  tau(   4) = (  -0.0000726   0.3835341   1.1999835  )
         5           S   tau(   5) = (  -0.1665330   0.4795004   1.3660585  )
         6           S   tau(   6) = (  -0.1665330   0.4795004   1.0339084  )
         7           Mo  tau(   7) = (  -0.1666408   0.6715665   1.1999835  )
         8           S   tau(   8) = (  -0.3330759   0.7676579   1.3659438  )
         9           S   tau(   9) = (  -0.3330759   0.7676579   1.0340231  )
        10           Mo  tau(  10) = (   0.4991331   0.0951273   1.1999835  )
        11           S   tau(  11) = (   0.3328814   0.1912597   1.3660660  )
        12           S   tau(  12) = (   0.3328814   0.1912597   1.0339009  )
        13           Mo  tau(  13) = (   0.3326551   0.3832979   1.1999835  )
        14           S   tau(  14) = (   0.1662905   0.4793486   1.0337937  )
        15           Mo  tau(  15) = (   0.1660867   0.6713305   1.1999835  )
        16           S   tau(  16) = (  -0.0002528   0.7675063   1.3660585  )
        17           S   tau(  17) = (  -0.0002528   0.7675063   1.0339084  )
        18           Mo  tau(  18) = (   0.8319367   0.0950376   1.1999835  )
        19           S   tau(  19) = (   0.6656700   0.1910317   1.3659566  )
        20           S   tau(  20) = (   0.6656700   0.1910317   1.0340103  )
        21           Mo  tau(  21) = (   0.6654571   0.3832090   1.1999835  )
        22           S   tau(  22) = (   0.4990782   0.4791210   1.3660660  )
        23           S   tau(  23) = (   0.4990782   0.4791211   1.0339009  )
        24           Mo  tau(  24) = (   0.4988902   0.6712425   1.1999835  )
        25           S   tau(  25) = (   0.3325343   0.7672783   1.3659501  )
        26           S   tau(  26) = (   0.3325344   0.7672783   1.0340168  )

     number of k points=    52
                       cart. coord. in units 2pi/alat
        k(    1) = (   0.0000000   0.0000000   0.0000000), wk =   0.0200000
        k(    2) = (  -0.0000048   0.1156829   0.0000000), wk =   0.0400000
        k(    3) = (  -0.0000096   0.2313658   0.0000000), wk =   0.0400000
        k(    4) = (  -0.0000144   0.3470488   0.0000000), wk =   0.0400000
        k(    5) = (  -0.0000192   0.4627317   0.0000000), wk =   0.0400000
        k(    6) = (   0.0000240  -0.5784146   0.0000000), wk =   0.0200000
        k(    7) = (   0.1001819   0.1735202   0.0000000), wk =   0.0400000
        k(    8) = (   0.1001771   0.2892031   0.0000000), wk =   0.0400000
        k(    9) = (   0.1001723   0.4048861   0.0000000), wk =   0.0400000
        k(   10) = (   0.1001675   0.5205690   0.0000000), wk =   0.0400000
        k(   11) = (   0.1002108  -0.5205773   0.0000000), wk =   0.0400000
        k(   12) = (   0.1002060  -0.4048944   0.0000000), wk =   0.0400000
        k(   13) = (   0.1002012  -0.2892115   0.0000000), wk =   0.0400000
        k(   14) = (   0.1001964  -0.1735285   0.0000000), wk =   0.0400000
        k(   15) = (   0.1001916  -0.0578456   0.0000000), wk =   0.0400000
        k(   16) = (   0.2003639   0.3470404   0.0000000), wk =   0.0400000
        k(   17) = (   0.2003591   0.4627233   0.0000000), wk =   0.0400000
        k(   18) = (   0.2003543   0.5784063   0.0000000), wk =   0.0400000
        k(   19) = (   0.2003975  -0.4627400   0.0000000), wk =   0.0400000
        k(   20) = (   0.2003927  -0.3470571   0.0000000), wk =   0.0400000
        k(   21) = (   0.2003879  -0.2313742   0.0000000), wk =   0.0400000
        k(   22) = (   0.2003831  -0.1156912   0.0000000), wk =   0.0400000
        k(   23) = (   0.3005458   0.5205606   0.0000000), wk =   0.0400000
        k(   24) = (   0.3005410   0.6362436   0.0000000), wk =   0.0400000
        k(   25) = (   0.3005843  -0.4049027   0.0000000), wk =   0.0400000
        k(   26) = (   0.3005795  -0.2892198   0.0000000), wk =   0.0400000
        k(   27) = (   0.3005747  -0.1735369   0.0000000), wk =   0.0400000
        k(   28) = (   0.4007278   0.6940809   0.0000000), wk =   0.0400000
        k(   29) = (   0.4007710  -0.3470654   0.0000000), wk =   0.0400000
        k(   30) = (   0.4007662  -0.2313825   0.0000000), wk =   0.0400000
        k(   31) = (  -0.5009097  -0.8676011   0.0000000), wk =   0.0200000
        k(   32) = (  -0.1001868  -0.0578373   0.0000000), wk =   0.0400000
        k(   33) = (  -0.2003735  -0.1156746   0.0000000), wk =   0.0400000
        k(   34) = (  -0.3005603  -0.1735119   0.0000000), wk =   0.0400000
        k(   35) = (  -0.4007470  -0.2313492   0.0000000), wk =   0.0400000
        k(   36) = (   0.5009338   0.2891865   0.0000000), wk =   0.0200000
        k(   37) = (  -0.2003687  -0.2313575   0.0000000), wk =   0.0400000
        k(   38) = (  -0.3005555  -0.2891948   0.0000000), wk =   0.0400000
        k(   39) = (  -0.4007422  -0.3470321   0.0000000), wk =   0.0400000
        k(   40) = (   0.5009386   0.1735036   0.0000000), wk =   0.0400000
        k(   41) = (   0.4007518   0.1156663   0.0000000), wk =   0.0400000
        k(   42) = (   0.3005651   0.0578290   0.0000000), wk =   0.0400000
        k(   43) = (   0.2003783  -0.0000083   0.0000000), wk =   0.0400000
        k(   44) = (  -0.3005506  -0.4048777   0.0000000), wk =   0.0400000
        k(   45) = (  -0.4007374  -0.4627150   0.0000000), wk =   0.0400000
        k(   46) = (   0.5009434   0.0578207   0.0000000), wk =   0.0400000
        k(   47) = (   0.4007566  -0.0000166   0.0000000), wk =   0.0400000
        k(   48) = (   0.3005699  -0.0578539   0.0000000), wk =   0.0400000
        k(   49) = (  -0.4007326  -0.5783979   0.0000000), wk =   0.0400000
        k(   50) = (   0.5009482  -0.0578623   0.0000000), wk =   0.0400000
        k(   51) = (   0.4007614  -0.1156996   0.0000000), wk =   0.0400000
        k(   52) = (   0.5009530  -0.1735452   0.0000000), wk =   0.0400000

     Initial potential from superposition of free atoms

     starting charge  155.98484, renormalised to  156.00000

     negative rho (up, down):  1.491E-02 0.000E+00
     Starting wfcs are  416 randomized atomic wfcs

     Self-consistent Calculation

     iteration #  1     ecut=    60.00 Ry     beta= 0.70
     Davidson diagonalization with overlap
     ethr =  1.00E-02,  avg # of iterations =  2.0

     negative rho (up, down):  4.003E-03 0.000E+00

     total energy              =    -489.78839874 Ry
     Harris-Foulkes estimate   =    -499.05375144 Ry
     estimated scf accuracy    <      11.24110802 Ry

[...]

     iteration # 11     ecut=    60.00 Ry     beta= 0.70
     Davidson diagonalization with overlap
     c_bands:  1 eigenvalues not converged
     ethr =  1.04E-05,  avg # of iterations =  6.1

[...]

     End of self-consistent calculation

          k = 0.0000 0.0000 0.0000 ( 71589 PWs)   bands (ev):

   -15.6509 -14.4618 -14.3351 -14.3340 -14.3267 -14.3133 -14.3119 -13.9368
   -13.6882 -13.6880 -13.6803 -13.6674 -13.6672 -13.3968 -13.3919 -13.1542
   -13.1124  -7.1321  -6.9188  -6.9186  -6.8680  -6.8166  -6.8153  -6.6091
    -6.6089  -6.5715  -6.0336  -6.0328  -5.8642  -5.7614  -5.7609  -5.7231
    -5.7230  -5.6718  -5.4671  -5.4659  -5.3841  -5.3187  -5.3183  -5.1217
    -5.0094  -5.0082  -4.9571  -4.4336  -4.3385  -4.3345  -4.1755  -4.1415
    -4.1404  -4.1157  -3.9039  -3.9032  -3.4776  -3.4712  -3.4535  -3.4533
    -3.2163  -3.0604  -3.0000  -3.0000  -2.8945  -2.8934  -2.6392  -2.6391
    -2.5911  -2.5813  -2.5794  -2.5647  -2.4231  -2.3688  -2.3590  -2.3583
    -2.2222  -2.2218  -1.4969  -1.2923  -1.2916  -1.0991  -0.0184  -0.0164
     0.8456   0.8486   1.2565   1.2575   1.2624   1.2629   1.3016   1.3044
     1.3336   1.3526   1.3552   1.5101   1.6323   1.6349   1.9327   1.9334
     2.0721   2.0732   2.3574   2.4959

[...]
S             4.5921719069        4.3892610084        9.6083039423
Mo            4.5761696427        6.1730015486       11.1534982543
S             3.0348099801        7.0064274582       12.7103728993
S             3.0393774195        7.0787627340        9.6083542323

     Writing output data file ./out/3x3_MoS2.save/
     NEW-OLD atomic charge density approx. for the potential

     negative rho (up, down):  6.935E-04 0.000E+00
     extrapolated charge  156.02616, renormalised to  156.00000

[...]

     bfgs converged in  12 scf cycles and  11 bfgs steps
     (criteria: energy <  1.0E-04 Ry, force <  1.0E-03Ry/Bohr, cell <  5.0E-01kbar)

     End of BFGS Geometry Optimization

     Final enthalpy =    -497.2828083530 Ry
Begin final coordinates
     new unit-cell volume =   8944.63755 a.u.^3 (  1325.45852 Ang^3 )
     density =      1.76477 g/cm^3

CELL_PARAMETERS (alat= 17.57351883)
   0.988692484  -0.000006971   0.000000000
  -0.494352283   0.856229331   0.000000000
   0.000000000   0.000000000   1.946870157

ATOMIC_POSITIONS (angstrom)
Mo            1.5316876389        0.8998040650       11.1534982016
S             0.0392398193        1.8179476414       12.7103729281
S            -0.0211205677        1.7778244890        9.6083539847
Mo            0.0458249901        3.5574675033       11.1263767303
S            -1.4639488414        4.4215400577       12.7103100107
S            -1.5287802709        4.3893104065        9.6082329074
Mo           -1.5128979418        6.1730613536       11.1534090063
S            -3.0655170349        7.0694664403       12.6938339615
S            -3.0655841218        7.0695051498        9.6139382341
Mo            4.5969734719        0.8766414628       11.1908636541
S             3.0241859098        1.8178225913       12.7104002867
S             3.0844531905        1.7778161375        9.6083035630
Mo            3.0176091195        3.5573719356       11.1264435684
S             1.5317857096        4.4152123555        9.5595634295
Mo            1.5316343472        6.1309646961       11.1263767634
S             0.0284386886        7.0064311302       12.7103097712
S             0.0239347163        7.0786911233        9.6082328680
Mo            7.6607139160        0.8766740361       11.1909574324
S             6.1287897520        1.7611309637       12.7527310552
S             6.1288782834        1.7610801743        9.6507931309
Mo            6.1288720405        3.5299676478       11.1908639473
S             4.5273912795        4.4214509759       12.7104003769
S             4.5921719069        4.3892610084        9.6083039423
Mo            4.5761696427        6.1730015486       11.1534982543
S             3.0348099801        7.0064274582       12.7103728993
S             3.0393774195        7.0787627340        9.6083542323
End final coordinates

     Writing output data file ./out/3x3_MoS2.save/

     Final scf calculation at the relaxed structure.
     The G-vectors are recalculated for the final unit cell
     Results may differ from those at the preceding step.

     bravais-lattice index     =            0
     lattice parameter (alat)  =      17.5735  a.u.
     unit-cell volume          =    8944.6375 (a.u.)^3
     number of atoms/cell      =           26
     number of atomic types    =            2
     number of electrons       =       156.00
     number of Kohn-Sham states=          100
     kinetic-energy cutoff     =      60.0000  Ry
     charge density cutoff     =     600.0000  Ry
     convergence threshold     =      1.0E-10
     mixing beta               =       0.7000
     number of iterations used =            8  plain     mixing
     Exchange-correlation= SLA-PW
                           (   1   4   0   0   0   0   0)

     celldm(1)=  17.573519  celldm(2)=   0.000000  celldm(3)=   0.000000
     celldm(4)=   0.000000  celldm(5)=   0.000000  celldm(6)=   0.000000

     crystal axes: (cart. coord. in units of alat)
               a(1) = (   0.988692  -0.000007   0.000000 )
               a(2) = (  -0.494352   0.856229   0.000000 )
               a(3) = (   0.000000   0.000000   1.946870 )

     reciprocal axes: (cart. coord. in units 2 pi/alat)
               b(1) = (  1.011441  0.583965 -0.000000 )
               b(2) = (  0.000008  1.167916 -0.000000 )
               b(3) = ( -0.000000 -0.000000  0.513645 )

     PseudoPot. # 1 for Mo read from file:
     ./Mo.pw-mt_fhi.UPF
     MD5 check sum: 39557091c5c29ab518dcc42d2770f0a9
     Pseudo is Norm-conserving, Zval =  6.0
     Generated using FHI98PP, converted with fhi2upf.x v.5.0.1
     Using radial grid of  541 points,  3 beta functions with:
                l(1) =   0
                l(2) =   2
                l(3) =   3

     PseudoPot. # 2 for S  read from file:
     ./S.pw-mt_fhi.UPF
     MD5 check sum: 498597b413bac406373b42162ed9f1a5
     Pseudo is Norm-conserving, Zval =  6.0
     Generated using FHI98PP, converted with fhi2upf.x v.5.0.1
     Using radial grid of  501 points,  3 beta functions with:
                l(1) =   0
                l(2) =   1
                l(3) =   3

     atomic species   valence    mass     pseudopotential
        Mo             6.00    95.95000     Mo( 1.00)
        S              6.00    32.06500     S ( 1.00)

     No symmetry found

   Cartesian axes

     site n.     atom                  positions (alat units)
         1           Mo  tau(   1) = (   0.1647064   0.0967583   1.1993646  )
         2           S   tau(   2) = (   0.0042196   0.1954886   1.3667794  )
         3           S   tau(   3) = (  -0.0022711   0.1911741   1.0332113  )
         4           Mo  tau(   4) = (   0.0049277   0.3825437   1.1964482  )
         5           S   tau(   5) = (  -0.1574222   0.4754597   1.3667727  )
         6           S   tau(   6) = (  -0.1643937   0.4719940   1.0331982  )
         7           Mo  tau(   7) = (  -0.1626858   0.6638053   1.1993550  )
         8           S   tau(   8) = (  -0.3296430   0.7601981   1.3650009  )
         9           S   tau(   9) = (  -0.3296502   0.7602023   1.0338118  )
        10           Mo  tau(  10) = (   0.4943245   0.0942675   1.2033826  )
        11           S   tau(  11) = (   0.3251986   0.1954752   1.3667824  )
        12           S   tau(  12) = (   0.3316793   0.1911732   1.0332058  )
        13           Mo  tau(  13) = (   0.3244913   0.3825334   1.1964554  )
        14           S   tau(  14) = (   0.1647169   0.4747793   1.0279647  )
        15           Mo  tau(  15) = (   0.1647006   0.6592786   1.1964482  )
        16           S   tau(  16) = (   0.0030581   0.7534197   1.3667726  )
        17           S   tau(  17) = (   0.0025738   0.7611900   1.0331982  )
        18           Mo  tau(  18) = (   0.8237765   0.0942710   1.2033927  )
        19           S   tau(  19) = (   0.6590447   0.1893790   1.3713343  )
        20           S   tau(  20) = (   0.6590542   0.1893735   1.0377749  )
        21           Mo  tau(  21) = (   0.6590535   0.3795866   1.2033827  )
        22           S   tau(  22) = (   0.4868421   0.4754501   1.3667824  )
        23           S   tau(  23) = (   0.4938082   0.4719886   1.0332059  )
        24           Mo  tau(  24) = (   0.4920874   0.6637989   1.1993646  )
        25           S   tau(  25) = (   0.3263410   0.7534193   1.3667794  )
        26           S   tau(  26) = (   0.3268321   0.7611977   1.0332113  )

     number of k points=    52
                       cart. coord. in units 2pi/alat
        k(    1) = (   0.0000000   0.0000000   0.0000000), wk =   0.0200000
        k(    2) = (   0.0000008   0.1167916   0.0000000), wk =   0.0400000
        k(    3) = (   0.0000016   0.2335832   0.0000000), wk =   0.0400000
        k(    4) = (   0.0000025   0.3503748   0.0000000), wk =   0.0400000
        k(    5) = (   0.0000033   0.4671665   0.0000000), wk =   0.0400000
        k(    6) = (  -0.0000041  -0.5839581   0.0000000), wk =   0.0200000
        k(    7) = (   0.1011449   0.1751881   0.0000000), wk =   0.0400000
        k(    8) = (   0.1011457   0.2919798   0.0000000), wk =   0.0400000
        k(    9) = (   0.1011466   0.4087714   0.0000000), wk =   0.0400000
        k(   10) = (   0.1011474   0.5255630   0.0000000), wk =   0.0400000
        k(   11) = (   0.1011400  -0.5255616   0.0000000), wk =   0.0400000
        k(   12) = (   0.1011408  -0.4087699   0.0000000), wk =   0.0400000
        k(   13) = (   0.1011416  -0.2919783   0.0000000), wk =   0.0400000
        k(   14) = (   0.1011424  -0.1751867   0.0000000), wk =   0.0400000
        k(   15) = (   0.1011433  -0.0583951   0.0000000), wk =   0.0400000
        k(   16) = (   0.2022898   0.3503763   0.0000000), wk =   0.0400000
        k(   17) = (   0.2022907   0.4671679   0.0000000), wk =   0.0400000
        k(   18) = (   0.2022915   0.5839595   0.0000000), wk =   0.0400000
        k(   19) = (   0.2022841  -0.4671650   0.0000000), wk =   0.0400000
        k(   20) = (   0.2022849  -0.3503734   0.0000000), wk =   0.0400000
        k(   21) = (   0.2022857  -0.2335818   0.0000000), wk =   0.0400000
        k(   22) = (   0.2022865  -0.1167902   0.0000000), wk =   0.0400000
        k(   23) = (   0.3034348   0.5255644   0.0000000), wk =   0.0400000
        k(   24) = (   0.3034356   0.6423560   0.0000000), wk =   0.0400000
        k(   25) = (   0.3034282  -0.4087685   0.0000000), wk =   0.0400000
        k(   26) = (   0.3034290  -0.2919769   0.0000000), wk =   0.0400000
        k(   27) = (   0.3034298  -0.1751853   0.0000000), wk =   0.0400000
        k(   28) = (   0.4045797   0.7007525   0.0000000), wk =   0.0400000
        k(   29) = (   0.4045723  -0.3503720   0.0000000), wk =   0.0400000
        k(   30) = (   0.4045731  -0.2335804   0.0000000), wk =   0.0400000
        k(   31) = (  -0.5057246  -0.8759407   0.0000000), wk =   0.0200000
        k(   32) = (  -0.1011441  -0.0583965   0.0000000), wk =   0.0400000
        k(   33) = (  -0.2022882  -0.1167930   0.0000000), wk =   0.0400000
        k(   34) = (  -0.3034323  -0.1751896   0.0000000), wk =   0.0400000
        k(   35) = (  -0.4045764  -0.2335861   0.0000000), wk =   0.0400000
        k(   36) = (   0.5057205   0.2919826   0.0000000), wk =   0.0200000
        k(   37) = (  -0.2022890  -0.2335847   0.0000000), wk =   0.0400000
        k(   38) = (  -0.3034331  -0.2919812   0.0000000), wk =   0.0400000
        k(   39) = (  -0.4045772  -0.3503777   0.0000000), wk =   0.0400000
        k(   40) = (   0.5057197   0.1751910   0.0000000), wk =   0.0400000
        k(   41) = (   0.4045756   0.1167945   0.0000000), wk =   0.0400000
        k(   42) = (   0.3034315   0.0583979   0.0000000), wk =   0.0400000
        k(   43) = (   0.2022874   0.0000014   0.0000000), wk =   0.0400000
        k(   44) = (  -0.3034339  -0.4087728   0.0000000), wk =   0.0400000
        k(   45) = (  -0.4045780  -0.4671693   0.0000000), wk =   0.0400000
        k(   46) = (   0.5057188   0.0583994   0.0000000), wk =   0.0400000
        k(   47) = (   0.4045747   0.0000029   0.0000000), wk =   0.0400000
        k(   48) = (   0.3034306  -0.0583937   0.0000000), wk =   0.0400000
        k(   49) = (  -0.4045789  -0.5839609   0.0000000), wk =   0.0400000
        k(   50) = (   0.5057180  -0.0583922   0.0000000), wk =   0.0400000
        k(   51) = (   0.4045739  -0.1167888   0.0000000), wk =   0.0400000
        k(   52) = (   0.5057172  -0.1751839   0.0000000), wk =   0.0400000

     Initial potential from superposition of free atoms

     starting charge  155.98484, renormalised to  156.00000

     negative rho (up, down):  1.431E-02 0.000E+00
     Starting wfcs are  416 randomized atomic wfcs

     Self-consistent Calculation

     iteration #  1     ecut=    60.00 Ry     beta= 0.70
     Davidson diagonalization with overlap
     c_bands:  2 eigenvalues not converged
     c_bands:  2 eigenvalues not converged
     c_bands:  2 eigenvalues not converged
     c_bands:  1 eigenvalues not converged
     c_bands:  2 eigenvalues not converged
     ethr =  1.00E-06,  avg # of iterations = 17.3

     negative rho (up, down):  4.034E-03 0.000E+00

[...]

     total energy              =    -497.28224654 Ry
     Harris-Foulkes estimate   =    -497.28224654 Ry
     estimated scf accuracy    <          2.8E-10 Ry

     iteration # 26     ecut=    60.00 Ry     beta= 0.70
     Davidson diagonalization with overlap
     ethr =  1.79E-13,  avg # of iterations =  2.0

     End of self-consistent calculation

[...]

          k =-0.4046-0.5840 0.0000 ( 70124 PWs)   bands (ev):

[...]

          k = 0.5057-0.1752 0.0000 ( 70167 PWs)   bands (ev):

   -15.2864 -15.1007 -14.6730 -14.3001 -14.2153 -14.0940 -13.8651 -13.7376
   -13.6427 -13.5880 -13.5638 -13.5192 -13.3797 -13.2960 -13.2234 -13.2131
   -13.1726  -7.3258  -6.9938  -6.8979  -6.7654  -6.7215  -6.6996  -6.5777
    -6.5570  -6.4691  -6.4137  -6.3422  -6.2710  -6.0200  -5.9402  -5.4270
    -5.3307  -5.2901  -5.1802  -5.0987  -5.0710  -4.9826  -4.8602  -4.7321
    -4.6806  -4.6238  -4.5915  -4.5321  -4.4654  -4.4320  -4.3544  -4.2492
    -4.1234  -4.0254  -3.9664  -3.7939  -3.6085  -3.5016  -3.3563  -3.2799
    -3.2549  -3.1640  -3.1296  -3.0989  -3.0706  -2.9389  -2.9071  -2.7120
    -2.6359  -2.4760  -2.2541  -2.2053  -2.0368  -1.9897  -1.8747  -1.7945
    -1.7305  -1.6915  -1.6268  -1.5798  -1.4598  -1.2744   0.2168   0.3267
     0.9793   1.0684   1.2494   1.3089   1.4320   1.4801   1.5110   1.6101
     1.6868   1.7606   1.7963   1.8700   1.8770   1.9437   2.0310   2.1391
     2.1665   2.2305   2.2819   2.3549

     highest occupied, lowest unoccupied level (ev):    -1.0925    0.1686

!    total energy              =    -497.28224654 Ry
     Harris-Foulkes estimate   =    -497.28224654 Ry
     estimated scf accuracy    <          4.5E-11 Ry

     The total energy is the sum of the following terms:

     one-electron contribution =   -3521.39132934 Ry
     hartree contribution      =    1799.47877634 Ry
     xc contribution           =    -114.53729705 Ry
     ewald contribution        =    1339.53752614 Ry
     Dispersion Correction     =      -0.36992264 Ry

     convergence has been achieved in  26 iterations

     Forces acting on atoms (cartesian axes, Ry/au):

     atom    1 type  1   force =     0.00000066   -0.00008818   -0.00040253
     atom    2 type  2   force =     0.00033754    0.00068613    0.00010728
     atom    3 type  2   force =    -0.00012661    0.00031544   -0.00033642
     atom    4 type  1   force =    -0.00077740   -0.00047112    0.00063698
     atom    5 type  2   force =     0.00075204   -0.00004913    0.00010901
     atom    6 type  2   force =     0.00018784   -0.00027417   -0.00031485
     atom    7 type  1   force =    -0.00006538    0.00003775   -0.00039231
     atom    8 type  2   force =     0.00000031   -0.00000014    0.00016884
     atom    9 type  2   force =     0.00000346   -0.00000202    0.00073140
     atom   10 type  1   force =    -0.00001339   -0.00000924    0.00016220
     atom   11 type  2   force =    -0.00034457    0.00068589    0.00009159
     atom   12 type  2   force =     0.00013431    0.00030373   -0.00032249
     atom   13 type  1   force =     0.00076809   -0.00044370    0.00062909
     atom   14 type  2   force =    -0.00001834    0.00001060   -0.00062242
     atom   15 type  1   force =     0.00001898    0.00090855    0.00063683
     atom   16 type  2   force =     0.00041849   -0.00062659    0.00010913
     atom   17 type  2   force =     0.00033133   -0.00002537   -0.00031488
     atom   18 type  1   force =     0.00002972   -0.00001702    0.00015071
     atom   19 type  2   force =     0.00001235   -0.00000723    0.00049692
     atom   20 type  2   force =    -0.00000347    0.00000183   -0.00062364
     atom   21 type  1   force =     0.00000132    0.00001620    0.00016217
     atom   22 type  2   force =    -0.00076633   -0.00004444    0.00009165
     atom   23 type  2   force =    -0.00019601   -0.00026800   -0.00032266
     atom   24 type  1   force =     0.00007671    0.00004361   -0.00040241
     atom   25 type  2   force =    -0.00042531   -0.00063532    0.00010746
     atom   26 type  2   force =    -0.00033637   -0.00004809   -0.00033667

     Total force =     0.003265     Total SCF correction =     0.000015

     Computing stress (Cartesian axis) and pressure

          total   stress  (Ry/bohr**3)                   (kbar)     P=        0.01
   0.00000156   0.00000002   0.00000000            0.23        0.00        0.00
   0.00000002   0.00000158  -0.00000000            0.00        0.23       -0.00
   0.00000000  -0.00000000  -0.00000292            0.00       -0.00       -0.43

     Writing output data file ./out/3x3_MoS2.save/

     General routines

     Parallel routines

   This run was terminated on:  12:24:22  12Apr2022

   JOB DONE.